LAMMPS (4 Jul 2026 - Development - patch_4Jul2026-315-g31083a2623-modified)
units           lj
dimension       3
boundary        m m m
atom_style      bpm/sphere
special_bonds   lj 0.0 1.0 1.0 coul 1.0 1.0 1.0 angle no dihedral no
newton          on off
comm_modify     vel yes cutoff 3.3
region          box block -15 15 -15 15 0 60.0
create_box      1 box bond/types 1 extra/bond/per/atom 15 extra/special/per/atom 50
Created orthogonal box = (-15 -15 0) to (15 15 60)
  1 by 1 by 1 MPI processor grid

molecule        my_mol "rect.mol"
Read molecule template my_mol:
#Made with create_mol.py
  1 molecules
  0 fragments
  0 bodies
  63 atoms with max type 1
  297 bonds with max type 1
  0 angles with max type 0
  0 dihedrals with max type 0
  0 impropers with max type 0
region          wall_cyl cylinder z 0.0 0.0 10.0 EDGE EDGE side in
region          dropzone cylinder z 0.0 0.0 10.0 40.0 50.0 side in

pair_style      gran/hertz/history 1.0 NULL 0.5 NULL 0.1 1
bond_style      bpm/rotational break no smooth no
pair_coeff      1 1
bond_coeff      1 1.0 0.2 0.01 0.01 0.0 0.0 0.0 0.0 0.2 0.04 0.002 0.002

compute         nbond all nbond/atom
compute         tbond all reduce sum c_nbond
compute         bond_ids all property/local batom1 batom2
compute         bond_properties all bond/local dist b1

compute_modify  thermo_temp dynamic/dof yes

fix             1 all wall/gran hertz/history 1.0 NULL 0.5 NULL 0.1 1 zplane 0.0 NULL
fix             2 all wall/gran/region hertz/history 1.0 NULL 0.5 NULL 0.1 1 region wall_cyl
fix             3 all gravity 1e-4 vector 0 0 -1
fix             4 all deposit 40 0 1500 712511343 mol my_mol region dropzone near 2.0 vz -0.05 -0.05
fix             5 all nve/bpm/sphere

timestep        0.05
thermo_style    custom step ke pe pxx pyy pzz c_tbond
thermo          100
#dump            1 all custom 500 atomDump id radius x y z c_nbond mol
#dump            2 all local 500 bondDump c_bond_ids[*] c_bond_properties[*]
#dump_modify     2 colname 1 "id1" colname 2 "id2" colname 3 "r" colname 4 "r0"

#dump            viz  all  image 250 bpm.pour-*.ppm mol type  bond atom type #                size 500 800 zoom 1.75  view 80 10 box no 0.025 #                shiny 0.6  fsaa yes ssao no 453983 0.6 region wall_cyl silver transparent 0.25
#dump_modify     viz pad 6 boxcolor gray backcolor black backcolor2 white #                amap 1 500 sa 1.0 8 #                firebrick gold forestgreen darkcyan orange midnightblue purple darkgray

run             100000

CITE-CITE-CITE-CITE-CITE-CITE-CITE-CITE-CITE-CITE-CITE-CITE-CITE

Your simulation uses code contributions which should be cited:

- BPM bond style: https://doi.org/10.1039/D3SM01373A

@Article{Clemmer2024,
 author =  {Clemmer, Joel T. and Monti, Joseph M. and Lechman, Jeremy B.},
 title =   {A soft departure from jamming: the compaction of deformable
            granular matter under high pressures},
 journal = {Soft Matter},
 year =    2024,
 volume =  20,
 number =  8,
 pages =   {1702--1718}
}

CITE-CITE-CITE-CITE-CITE-CITE-CITE-CITE-CITE-CITE-CITE-CITE-CITE

Generated 0 of 0 mixed pair_coeff terms from geometric mixing rule
Neighbor list info ...
  update: every = 1 steps, delay = 0 steps, check = yes
  max neighbors/atom: 2000, page size: 100000
  master list distance cutoff = 1.3
  ghost atom cutoff = 3.3
  binsize = 0.65, bins = 47 47 93
  1 neighbor lists, perpetual/occasional/extra = 1 0 0
  (1) pair gran/hertz/history, perpetual
      attributes: half, newton on, size, history
      pair build: half/size/bin/newton
      stencil: half/bin/3d
      bin: standard
Per MPI rank memory allocation (min/avg/max) = 7.643 | 7.643 | 7.643 Mbytes
   Step         KinEng         PotEng          Pxx            Pyy            Pzz          c_tbond    
         0  -0              0              0              0              0              0            
       100   0.0018335508   0.00025926523 -1.2375482e-05 -1.0844673e-05 -3.1868858e-07  9.4285714    
       200   0.0025960594   0.00020839118  2.5046297e-06  3.5295582e-06  4.409439e-06   9.4285714    
       300   0.0037002941   0.00047061973  6.0523265e-06  9.3809956e-07  5.1692947e-06  9.4285714    
       400   0.0060200006   0.00079201218 -2.0367487e-05 -1.5519847e-06 -4.5891929e-06  9.4285714    
       500   0.007457645    0.00059583545  2.1286671e-05  1.9254751e-05  1.3748685e-05  9.4285714    
       600   0.0078048005   5.7475659e-05 -1.9835939e-06  1.4212431e-05  2.4834584e-06  9.4285714    
       700   0.0075689409   0.00018354925 -8.3974302e-07  1.3155518e-05  2.8824694e-06  9.4285714    
       800   0.0074034253   0.00030684998  1.672194e-05   1.3582436e-05  1.352411e-05   9.4285714    
       900   0.0075615075   0.00013173119 -7.8831966e-06  1.3654661e-05 -2.6853711e-06  9.4285714    
      1000   0.0075898427   7.7249764e-05  8.2601322e-06  1.389569e-05   9.0843684e-06  9.4285714    
      1100   0.0075347601   0.00012859461  9.6740799e-06  1.3638135e-05  1.002989e-05   9.4285714    
      1200   0.0075072728   0.00016060278 -3.551904e-06   1.0717201e-05 -2.1183136e-06  9.4285714    
      1300   0.0075710194   0.0001011278   8.4898056e-06  1.6422747e-05  1.067087e-05   9.4285714    
      1400   0.0076284606   4.9612056e-05  5.0793294e-06  1.3606869e-05  6.5844461e-06  9.4285714    
      1500   0.0076088968   7.5860838e-05  2.0398919e-06  8.9806332e-06  2.2469116e-06  9.4285714    
      1600   0.005984572    0.00029227276  4.1041122e-06  1.8851954e-05  8.3896693e-06  9.4285714    
      1700   0.0080297945   0.00026829648  3.6378135e-06  2.3764846e-05  1.6791357e-06  9.4285714    
      1800   0.0087483523   0.00011772739  7.1482609e-06  3.5069278e-05  1.4931092e-05  9.4285714    
      1900   0.0086856558   0.00014897049  7.5013174e-06  3.5292532e-05  1.3542216e-05  9.4285714    
      2000   0.0086762775   0.00015379595  6.196257e-06   2.5995183e-05  7.0480927e-06  9.4285714    
      2100   0.0084577722   0.00015540402  8.5446783e-06  3.102859e-05   1.3678059e-05  9.4285714    
      2200   0.0083594993   0.0001212251   6.9447273e-06  2.8253594e-05  6.3524494e-06  9.4285714    
      2300   0.0083492489   0.00012756613  1.0372786e-05  2.3871028e-05  1.2494608e-05  9.4285714    
      2400   0.008307376    0.00016714685  1.0685138e-05  3.2406727e-05  1.1411822e-05  9.4285714    
      2500   0.008383357    9.6975363e-05  7.5243237e-06  2.6488503e-05  8.1730107e-06  9.4285714    
      2600   0.0084065313   9.3811819e-05  9.8023742e-06  2.7006673e-05  1.3022161e-05  9.4285714    
      2700   0.0082718127   0.00010275437  1.0372806e-05  2.8623573e-05  1.2222825e-05  9.4285714    
      2800   0.0073645848   0.00035958155  8.5731668e-06  1.8733407e-05  1.1109041e-05  9.4285714    
      2900   0.0072707072   0.0005106471   9.7410984e-06  1.6584905e-05  1.258607e-05   9.4285714    
      3000   0.0072225055   0.00036305442  5.4102967e-06  1.1704097e-05  1.1543127e-05  9.4285714    
      3100   0.0048245756   0.00032662671 -1.3136199e-05  1.8928782e-07  1.2250485e-05  9.4285714    
      3200   0.0045692452   0.00039344734 -1.2254321e-05  1.1538095e-06  1.2563702e-05  9.4285714    
      3300   0.0047655002   0.00020298186  5.4294102e-06  1.0240847e-05  1.7250149e-05  9.4285714    
      3400   0.0048430206   0.0001879143   9.9969691e-06  1.5653666e-05  1.8048341e-05  9.4285714    
      3500   0.0048337122   0.00022007919  1.0020347e-05  1.5403336e-05  1.8608319e-05  9.4285714    
      3600   0.004714768    0.00016995632  1.0156978e-05  1.3226804e-05  1.533551e-05   9.4285714    
      3700   0.0045654551   0.0003147284   8.9184187e-06  1.6162379e-05  1.0460763e-05  9.4285714    
      3800   0.0045545866   0.00044763149  7.456393e-06   1.3540398e-05  1.3088702e-05  9.4285714    
      3900   0.0047304718   0.00027558046  9.0637226e-06  1.0873917e-05  1.6491451e-05  9.4285714    
      4000   0.0049120447   0.00010183339  8.4951385e-06  1.5664952e-05  1.4425347e-05  9.4285714    
      4100   0.0046852543   0.00023695826  5.8240106e-06  1.19828e-05    1.9294224e-05  9.4285714    
      4200   0.00353987     0.00064015336 -2.8144844e-05 -2.7047154e-05  1.0493755e-05  9.4285714    
      4300   0.0031991095   0.0005034321  -2.1627195e-05 -1.8733537e-05  7.8741571e-06  9.4285714    
      4400   0.003348275    0.00034308938  1.0516283e-05  1.0546064e-05  2.2707179e-05  9.4285714    
      4500   0.0034775381   0.00029363424  5.5764387e-07  4.5730706e-06  1.3995899e-05  9.4285714    
      4600   0.0029984744   0.00024266309  4.2050364e-06  3.8575953e-06  1.9354882e-05  9.4285714    
      4700   0.0030703117   0.00017530084  1.0819881e-05  9.5661938e-06  3.1201489e-05  9.4285714    
      4800   0.0031200068   0.00013453395  6.6985993e-06  9.5556439e-06  1.8699061e-05  9.4285714    
      4900   0.0030332781   0.00021880574  5.6911915e-06  4.5873525e-06  2.1993823e-05  9.4285714    
      5000   0.0030219011   0.00021378057  5.1851851e-06 -2.8166143e-06  2.5272214e-05  9.4285714    
      5100   0.0030503946   0.00014837835  4.5569804e-06 -7.9381978e-06  2.1897368e-05  9.4285714    
      5200   0.0030063929   0.00018605609  4.7808317e-06 -9.1038868e-06  2.7222117e-05  9.4285714    
      5300   0.0030003722   0.00022210059  4.6947529e-06 -4.2885508e-06  1.6692542e-05  9.4285714    
      5400   0.0031524615   0.00010448646  5.8829652e-06  2.146893e-06   2.3676069e-05  9.4285714    
      5500   0.0031998474   9.0557584e-05  6.9868948e-06  7.8653387e-06  3.3229893e-05  9.4285714    
      5600   0.0031494643   0.00016404019  6.4347148e-06  7.1336852e-06  1.8354706e-05  9.4285714    
      5700   0.0032127424   0.00011506024  6.2355407e-06  5.5911031e-06  2.2697817e-05  9.4285714    
      5800   0.0030759795   0.00012741547  6.4106092e-06  8.4131693e-06  2.736473e-05   9.4285714    
      5900   0.0025295845   0.00018964108  2.5531813e-06  3.468825e-06   1.6586511e-05  9.4285714    
      6000   0.0024610002   0.00020634405  3.1879965e-06  6.6465136e-07  1.3242017e-05  9.4285714    
      6100   0.0024848201   0.00019130654  4.8309731e-06  1.1487149e-05  2.8355827e-05  9.4285714    
      6200   0.0025064573   0.00023260041  6.1095713e-06  2.1239186e-06  2.9074024e-05  9.4285714    
      6300   0.0025830944   0.00016738736  2.3091302e-06 -2.6176873e-06  1.9103609e-05  9.4285714    
      6400   0.0033921161   0.000269544    5.4116734e-06 -2.7265613e-06  2.3757731e-05  9.4285714    
      6500   0.0038149256   0.00027546851  1.3356738e-05  3.2454503e-06  2.6771805e-05  9.4285714    
      6600   0.0038635621   0.00036999531  1.2472184e-05  1.7809755e-05  2.7377075e-05  9.4285714    
      6700   0.0038593448   0.00023816123  1.7979432e-06  9.0149964e-06  2.6286284e-05  9.4285714    
      6800   0.0037465866   0.00024112774  2.2115704e-05  1.2436445e-05  3.76644e-05    9.4285714    
      6900   0.0035308965   0.00037579531  2.4064219e-06  2.537169e-06   3.312436e-05   9.4285714    
      7000   0.0031794376   0.00057523149 -3.1526953e-06 -2.7510981e-05  1.2813942e-05  9.4285714    
      7100   0.0032441114   0.00052152694  1.5003332e-05 -1.0854212e-05  3.383486e-05   9.4285714    
      7200   0.0034479975   0.00034836798  3.5574982e-06  4.3049626e-06  3.6098965e-05  9.4285714    
      7300   0.0035626787   0.0002581018   1.0004682e-05 -1.4984704e-05  3.9098662e-05  9.4285714    
      7400   0.003528189    0.0003241799   8.1490379e-06  1.4392851e-05  3.5833063e-05  9.4285714    
      7500   0.0036324409   0.0002304613   8.1583105e-07  8.7838593e-06  3.0669525e-05  9.4285714    
      7600   0.0033180084   0.00012350026  1.0084066e-05  2.3368885e-06  3.9813625e-05  9.4285714    
      7700   0.0033593664   0.00024677229  1.6435068e-06  1.7119187e-05  3.7439091e-05  9.4285714    
      7800   0.0035947817   0.00025889286  4.1833038e-06  9.3761248e-06  3.1671157e-05  9.4285714    
      7900   0.0039593486   0.00019563999  1.2133424e-05  1.3238724e-05  3.5421678e-05  9.4285714    
      8000   0.0043094394   0.00020505593  1.2880846e-05  1.4016699e-05  3.7422095e-05  9.4285714    
      8100   0.0048529974   0.00019125697  2.0983978e-05  1.0377193e-05  3.2645852e-05  9.4285714    
      8200   0.0052716226   0.00018868093  3.5170948e-05  1.4120563e-05  4.4052875e-05  9.4285714    
      8300   0.0052620308   0.00026938609  3.2941092e-05  1.0061171e-05  4.3525719e-05  9.4285714    
      8400   0.005339532    0.00018217868  3.4687009e-05  8.7599891e-06  3.5528645e-05  9.4285714    
      8500   0.0053777874   0.00012124946  3.5686197e-05  8.8449172e-06  5.4282828e-05  9.4285714    
      8600   0.0052904516   0.00022497627  3.204458e-05   4.0477024e-06  3.9171756e-05  9.4285714    
      8700   0.00534618     0.00019827377  3.7350134e-05  1.1008029e-05  3.4348977e-05  9.4285714    
      8800   0.0054590143   0.00010215576  3.5776855e-05  1.4178073e-05  6.1244023e-05  9.4285714    
      8900   0.0054392242   0.00014860035  3.2017919e-05  1.0696895e-05  4.5219491e-05  9.4285714    
      9000   0.0054326407   0.0001786004   3.5942212e-05  1.1714022e-05  4.3198111e-05  9.4285714    
      9100   0.0048911701   0.00011865639  3.6573823e-05  1.2679926e-05  5.4115321e-05  9.4285714    
      9200   0.0049314869   0.0001058822   3.3900866e-05  1.2160265e-05  4.7861649e-05  9.4285714    
      9300   0.0049043423   0.00010926749  3.2536091e-05  1.0225669e-05  5.9031831e-05  9.4285714    
      9400   0.0047365301   0.00015203356  2.6504387e-05  1.6565865e-05  5.3061507e-05  9.4285714    
      9500   0.004577556    0.00020932125  2.3018681e-05  1.3204233e-05  5.5312416e-05  9.4285714    
      9600   0.0043797451   0.00040500565  2.6748775e-05  4.3759733e-06  6.2799357e-05  9.4285714    
      9700   0.0043672093   0.00052854781  1.3498941e-05  6.64026e-06    4.6256752e-05  9.4285714    
      9800   0.0045234437   0.00040297945  2.3189192e-05  1.4335685e-05  4.6929728e-05  9.4285714    
      9900   0.0047832364   0.00014380655  3.9140833e-05  1.8385837e-05  6.1772606e-05  9.4285714    
     10000   0.0047547957   0.00017974512  2.1939115e-05  9.8393682e-06  7.2005038e-05  9.4285714    
     10100   0.0045888678   0.00037432074  1.4833443e-05  9.1761477e-06  4.85568e-05    9.4285714    
     10200   0.00459309     0.00027045379  4.5182211e-06  7.4120091e-06  4.8754368e-05  9.4285714    
     10300   0.0045475497   0.00017852883 -1.3031413e-05  6.1494754e-07  7.1001003e-05  9.4285714    
     10400   0.0042282056   0.00044372082 -3.8390322e-05  1.3165618e-05  5.670429e-05   9.4285714    
     10500   0.0042798705   0.00048805456 -2.9812095e-05  4.7984367e-06  4.9793825e-05  9.4285714    
     10600   0.0045832726   0.00021112615  1.6287063e-05  2.6817383e-05  5.8674942e-05  9.4285714    
     10700   0.0054850724   0.000165676    1.9455241e-05  5.7276781e-05  6.4904054e-05  9.4285714    
     10800   0.0057236133   0.00030757949  1.042682e-05   1.6138593e-05  7.0012917e-05  9.4285714    
     10900   0.0056776336   0.00029110581  1.2074179e-05  1.4728019e-05  6.4333014e-05  9.4285714    
     11000   0.005853186    0.00018386726  1.7247221e-05  5.9782345e-05  6.7043271e-05  9.4285714    
     11100   0.0056929131   0.00030255139  1.949702e-05   4.1234244e-05  6.4451045e-05  9.4285714    
     11200   0.0053830461   0.00045106942 -4.4990817e-06  7.9103914e-06  3.6292888e-05  9.4285714    
     11300   0.0055037381   0.00032202423  1.3907016e-05  4.342365e-05   4.9156874e-05  9.4285714    
     11400   0.0055248541   0.00031188503  4.6941275e-05  4.0136207e-05  6.6866753e-05  9.4285714    
     11500   0.0055120264   0.00033893899  1.8749067e-06  1.8749598e-05  6.3726581e-05  9.4285714    
     11600   0.0055294574   0.00034485534  3.5865909e-05  3.3185752e-05  6.4602566e-05  9.4285714    
     11700   0.0056404893   0.00023470455  3.4297821e-05  4.8492345e-05  6.1107328e-05  9.4285714    
     11800   0.0056113345   0.00023289675  5.4007767e-06  4.7359398e-05  6.1628464e-05  9.4285714    
     11900   0.0052224988   0.00037632449  2.2769743e-05  3.3092622e-05  5.006834e-05   9.4285714    
     12000   0.0052321333   0.00049152026  1.3382673e-05  3.0700257e-05  6.1555695e-05  9.4285714    
     12100   0.0047747495   0.00060145478  6.4099036e-06  3.9336441e-05  5.0428127e-05  9.4285714    
     12200   0.0049750124   0.00044765913 -6.1987276e-06  5.2364472e-05  6.7079806e-05  9.4285714    
     12300   0.0050953016   0.00031693875  4.5729558e-05  3.7958406e-05  7.9184626e-05  9.4285714    
     12400   0.0050314664   0.0003645098   2.7638138e-05  3.5198951e-05  5.4415446e-05  9.4285714    
     12500   0.0049509066   0.00044903461 -1.2587128e-05  4.9443797e-05  7.0361699e-05  9.4285714    
     12600   0.0048601371   0.00036456613  2.3374939e-05  2.1698818e-05  6.7756101e-05  9.4285714    
     12700   0.0045336814   0.00037214514  2.3043785e-05 -2.4164841e-05  5.7337417e-05  9.4285714    
     12800   0.0043150375   0.00041532869  1.3672966e-05  7.1291512e-06  7.5952525e-05  9.4285714    
     12900   0.0043105107   0.00045708803  1.1451732e-05  3.5923855e-05  7.2032118e-05  9.4285714    
     13000   0.0044476869   0.00034637601  3.4547038e-06  3.4688699e-05  7.2600367e-05  9.4285714    
     13100   0.0046402975   0.00024884789  3.1328528e-05  2.6046287e-05  6.6391802e-05  9.4285714    
     13200   0.0045495398   0.00035606671  2.3557894e-05  2.7156234e-05  9.8937015e-05  9.4285714    
     13300   0.0045506945   0.00037079839  1.1080185e-07  3.7104211e-05  7.4877648e-05  9.4285714    
     13400   0.0045050387   0.00034560197  1.8114228e-05  3.4515427e-05  5.4444321e-05  9.4285714    
     13500   0.0042851508   0.00043153577  2.2510035e-05  1.9047731e-05  2.8966893e-05  9.4285714    
     13600   0.0038581359   0.00035708712  2.0323566e-05  7.1764902e-06  3.06412e-05    9.4285714    
     13700   0.0035774441   0.00051357865  8.2202076e-06  1.6739943e-05  5.3659023e-05  9.4285714    
     13800   0.0038850611   0.00060408281  8.9066284e-06  2.0133264e-07  4.1071042e-05  9.4285714    
     13900   0.0041852115   0.00048585903  3.5249628e-05  3.7853213e-06  6.6036385e-05  9.4285714    
     14000   0.0046835692   0.00027965506  2.6029429e-05  3.7131315e-05  7.3804277e-05  9.4285714    
     14100   0.004687329    0.00038981946  1.6524849e-05  2.9094451e-05  6.683816e-05   9.4285714    
     14200   0.0044849368   0.00054732182  2.8354688e-05  3.4135079e-05  5.8922199e-05  9.4285714    
     14300   0.0046299761   0.00040225936  1.8624396e-05  3.0511261e-05  6.4699937e-05  9.4285714    
     14400   0.004755176    0.00028883965  2.3673674e-05  3.7515776e-05  6.9682321e-05  9.4285714    
     14500   0.0046298349   0.00037360617  2.6077279e-05  3.3132058e-05  7.2540661e-05  9.4285714    
     14600   0.0045378167   0.00047622494  1.1542764e-05  2.1752013e-05  6.2313983e-05  9.4285714    
     14700   0.0044800947   0.00047108651  2.4922275e-05  2.8583288e-05  6.2976898e-05  9.4285714    
     14800   0.0042937611   0.00044850024  2.2388195e-05  3.489671e-05   7.9247958e-05  9.4285714    
     14900   0.00403552     0.00057526033  1.6225416e-05 -7.5057653e-08  7.4223656e-05  9.4285714    
     15000   0.0039478297   0.00064302002  1.5960977e-05 -8.2074887e-06  5.6777796e-05  9.4285714    
     15100   0.0042302838   0.00037803782  2.6408035e-06  2.843703e-05   6.9396522e-05  9.4285714    
     15200   0.0049627839   0.0002681085   5.1365238e-05  4.1601587e-05  8.9218523e-05  9.4285714    
     15300   0.0050940908   0.00047483877  4.8624077e-05  1.8406685e-05  5.9925688e-05  9.4285714    
     15400   0.0050087832   0.00049167705  2.8763476e-05  1.987096e-05   8.0090215e-05  9.4285714    
     15500   0.0050905108   0.00030014137  5.0730679e-05  1.378029e-05   8.084484e-05   9.4285714    
     15600   0.0049914939   0.00038728245  6.6888443e-05  2.1730698e-05  6.3230129e-05  9.4285714    
     15700   0.0048092366   0.000577506    4.649263e-05   2.5548576e-05  7.4598953e-05  9.4285714    
     15800   0.004897414    0.00046167488  2.3015231e-05  2.3032749e-05  6.7589476e-05  9.4285714    
     15900   0.0051125554   0.00025709888  5.7789154e-05  4.9226046e-05  7.6351067e-05  9.4285714    
     16000   0.005057141    0.0003238812   6.0851447e-05  2.6619017e-05  8.8468435e-05  9.4285714    
     16100   0.0048963044   0.00044061013  3.6395109e-05  1.7809396e-05  6.0990292e-05  9.4285714    
     16200   0.0048227163   0.00043977607  3.6306406e-05  2.7721998e-05  6.0764227e-05  9.4285714    
     16300   0.004911106    0.00031143538  4.7240646e-05  2.4205727e-05  8.2525576e-05  9.4285714    
     16400   0.004273046    0.00039039189  3.4267664e-05  7.9217879e-06  1.3475186e-05  9.4285714    
     16500   0.0042450089   0.00038398338  5.012626e-05  -5.7466889e-07  3.3636335e-05  9.4285714    
     16600   0.003959721    0.00043316883  2.5102748e-05 -2.4983099e-06  6.9382291e-05  9.4285714    
     16700   0.0039987591   0.00048236315  3.3778638e-05 -7.1012256e-06  5.5558636e-05  9.4285714    
     16800   0.0040998819   0.00043871213  6.3414145e-05 -5.3916624e-06  7.1561105e-05  9.4285714    
     16900   0.0042969171   0.00031759642  3.6527802e-05  1.0616979e-05  6.2186053e-05  9.4285714    
     17000   0.0042626699   0.00031580355  4.71534e-05    1.8042644e-05  5.3516524e-05  9.4285714    
     17100   0.0042495065   0.00042045517  4.6797084e-05 -3.5059358e-06  5.2010473e-05  9.4285714    
     17200   0.0045149265   0.00037593987  4.2644757e-05  9.8365756e-06  5.7027636e-05  9.4285714    
     17300   0.004697007    0.00029913299  6.3108737e-05  3.3100112e-05  6.0083995e-05  9.4285714    
     17400   0.0046076917   0.00028804121  2.4564397e-05  4.1300212e-05  5.0725412e-05  9.4285714    
     17500   0.0044634488   0.00036188316  2.7801319e-05  1.4317011e-05  4.5215143e-05  9.4285714    
     17600   0.0044251016   0.00034297123  4.6250963e-05  3.9705272e-05  4.7178391e-05  9.4285714    
     17700   0.0044434922   0.0003260544   3.8453047e-05  4.1304842e-05  8.0974091e-05  9.4285714    
     17800   0.0041667561   0.00041223186  3.3740468e-05  2.9996964e-05  2.741389e-05   9.4285714    
     17900   0.0040615535   0.000394426    2.0863022e-06  2.8342149e-05  2.9221168e-05  9.4285714    
     18000   0.0033878251   0.00043316612  1.5133288e-05  4.4978035e-05  5.5947124e-05  9.4285714    
     18100   0.0032630449   0.00035852141  3.9012594e-07  3.737562e-05   2.4098213e-05  9.4285714    
     18200   0.0034119327   0.00033330068  4.6482217e-06  4.4556921e-05  6.1902425e-05  9.4285714    
     18300   0.0034651768   0.00031061301  4.9796417e-05  4.4196772e-05  3.4996006e-05  9.4285714    
     18400   0.0034993269   0.00026734288  2.4103132e-05  3.0380403e-05  4.6951961e-05  9.4285714    
     18500   0.0034684689   0.00025984823  1.4596145e-05  6.2377577e-05  7.4034695e-05  9.4285714    
     18600   0.0034397391   0.00025847839  2.6830916e-05  3.4898935e-05  3.0528931e-05  9.4285714    
     18700   0.0034367921   0.00026737742  3.616972e-05   2.7816137e-05  5.2831263e-05  9.4285714    
     18800   0.0033896317   0.00027232815  2.4963746e-05  6.6407617e-05  6.305728e-05   9.4285714    
     18900   0.0033903626   0.0002430261   5.8933896e-06  3.7350038e-05  4.4253065e-05  9.4285714    
     19000   0.0033847129   0.00026269973  2.602363e-05   3.8302895e-05  5.8666703e-05  9.4285714    
     19100   0.0034137723   0.00024335697  3.4312386e-05  5.1996143e-05  5.4623032e-05  9.4285714    
     19200   0.003240172    0.00023027866  6.1250914e-06  2.2917532e-05  4.9346503e-05  9.4285714    
     19300   0.0027608004   0.00034628914 -9.7191949e-06  1.9789638e-05  6.2648709e-05  9.4285714    
     19400   0.0028023016   0.00039554044 -1.8929278e-05  1.428804e-05   4.8902643e-05  9.4285714    
     19500   0.0028495416   0.00031741718  2.8093869e-05  2.6945209e-05  2.3874149e-05  9.4285714    
     19600   0.0028296588   0.00023886269  1.5762495e-05  4.9926947e-05  2.1394213e-05  9.4285714    
     19700   0.002802022    0.00025557061  1.2761364e-05  1.7877227e-05  2.7458338e-05  9.4285714    
     19800   0.0027837969   0.00023919956  3.1455382e-05  3.5798235e-05  3.9467309e-05  9.4285714    
     19900   0.0027544369   0.00027841908  2.0503865e-05  4.5638191e-05  5.4035023e-05  9.4285714    
     20000   0.0027300724   0.00031413699  2.6077958e-05  2.6325001e-05  5.4458449e-05  9.4285714    
     20100   0.0027709626   0.00028059143  2.2891792e-05  2.8127676e-05  5.8352647e-05  9.4285714    
     20200   0.0028194021   0.00022718757  2.3696504e-05  3.9239772e-05  6.2313203e-05  9.4285714    
     20300   0.0028168645   0.00018768421  2.953219e-05   3.2068645e-05  5.5406646e-05  9.4285714    
     20400   0.0028263495   0.00019432851  2.0046912e-05  2.3106588e-05  5.6790464e-05  9.4285714    
     20500   0.0028014054   0.00020536779  2.0660406e-05  3.928139e-05   5.3204299e-05  9.4285714    
     20600   0.0028030745   0.00019927434  2.4303071e-05  2.7913354e-05  5.6469815e-05  9.4285714    
     20700   0.0027980875   0.00019823899  2.1796222e-05  3.2016017e-05  4.7181897e-05  9.4285714    
     20800   0.0028111905   0.00017488919  1.6421883e-05  3.2591545e-05  6.717946e-05   9.4285714    
     20900   0.0028260777   0.00016219731  1.8103427e-05  2.6608095e-05  6.4409489e-05  9.4285714    
     21000   0.0028198478   0.00018356248  2.1915298e-05  3.8499084e-05  4.783387e-05   9.4285714    
     21100   0.0027624722   0.0001890196   1.5000345e-05  1.4942878e-05  6.3520012e-05  9.4285714    
     21200   0.0030070085   0.00015342703  2.4660531e-05  1.6453664e-05  6.4578989e-05  9.4285714    
     21300   0.003116974    0.00019861978  4.0329588e-05  4.3577688e-05  7.2046514e-05  9.4285714    
     21400   0.0031402853   0.0002021127   2.9624117e-05  2.5946734e-05  6.3987231e-05  9.4285714    
     21500   0.0031970533   0.0001371228   3.1036504e-05  3.1864652e-05  7.1716875e-05  9.4285714    
     21600   0.0030701135   0.00015137455  3.4894272e-05  4.8559803e-05  8.8889187e-05  9.4285714    
     21700   0.0031152174   0.00014919907  3.7149947e-05  3.5523385e-05  7.7576857e-05  9.4285714    
     21800   0.0030742064   0.00018456876  1.3548398e-05  1.7813464e-05  5.6091934e-05  9.4285714    
     21900   0.003061696    0.0001697371   2.748818e-05   1.6367934e-05  7.4808869e-05  9.4285714    
     22000   0.0030806364   0.00013574498  2.5407518e-05  2.3091002e-05  7.0667908e-05  9.4285714    
     22100   0.0030861605   0.00015141244  1.9997804e-05  2.5616761e-05  6.8838612e-05  9.4285714    
     22200   0.0030389334   0.00019190801  2.0807488e-05  2.7197302e-05  7.7032704e-05  9.4285714    
     22300   0.0030046869   0.00016163108  9.3746869e-07  2.4342906e-05  6.2351388e-05  9.4285714    
     22400   0.002927378    0.00018461524  1.395038e-05   2.2660344e-05  6.135765e-05   9.4285714    
     22500   0.0028658284   0.00024905299  2.4749597e-05  2.6732537e-05  6.378053e-05   9.4285714    
     22600   0.0027627389   0.00022493637  1.3645322e-05  1.8401335e-05  4.7483632e-05  9.4285714    
     22700   0.0028062581   0.00015954319  3.0770942e-05  1.2967661e-05  5.8011574e-05  9.4285714    
     22800   0.0027823405   0.00016634633  2.5606891e-05  2.3201535e-05  7.7521362e-05  9.4285714    
     22900   0.0027042223   0.00021194209  3.3528146e-06  2.1827776e-05  5.7855443e-05  9.4285714    
     23000   0.0026761811   0.00020283501  2.4489507e-05  2.3324285e-05  7.4044459e-05  9.4285714    
     23100   0.002596572    0.00023520619 -1.2262863e-05  1.8754189e-05  7.2840131e-05  9.4285714    
     23200   0.0026227061   0.00021879484  5.6067878e-06  6.0128889e-06  5.1787487e-05  9.4285714    
     23300   0.0026660105   0.00016997479  3.7377868e-05  2.5376031e-05  6.7929587e-05  9.4285714    
     23400   0.0025894675   0.00021178954  9.8887722e-06  1.9941056e-05  2.4878647e-05  9.4285714    
     23500   0.0025588797   0.00026042607  2.732126e-05   7.5288017e-06  3.6025273e-06  9.4285714    
     23600   0.0026902958   0.00016193781  2.3725909e-05  2.6539914e-05  5.2158294e-05  9.4285714    
     23700   0.0027394539   0.00013244602  2.9907749e-05  1.885145e-05   7.0493254e-05  9.4285714    
     23800   0.0026950893   0.00015461743  2.0459803e-05  1.1394008e-05  5.9968279e-05  9.4285714    
     23900   0.0026794909   0.00016103552  4.5764215e-06  9.6691968e-06  5.780266e-05   9.4285714    
     24000   0.0026630099   0.00017881606  2.2037449e-05  1.9680534e-05  6.1328145e-05  9.4285714    
     24100   0.0025515215   0.0001493315   2.215275e-05   1.6488969e-05  5.900907e-05   9.4285714    
     24200   0.0024684149   0.00018315154  7.2204313e-06  7.8354712e-06  4.599036e-05   9.4285714    
     24300   0.0024763624   0.00020358675  3.4696471e-05  1.6853579e-05  5.0380286e-05  9.4285714    
     24400   0.0025912553   0.00016142246  1.1519342e-05  2.0573221e-05  6.5670268e-05  9.4285714    
     24500   0.00258501     0.00021073208  4.0985413e-05  2.7137172e-05  4.7696334e-05  9.4285714    
     24600   0.0025448881   0.00026353035  8.1446058e-06  1.2820007e-05  5.8432064e-05  9.4285714    
     24700   0.0025853663   0.00019187733 -2.2775347e-06  2.3670222e-06  4.8173918e-05  9.4285714    
     24800   0.0026254458   0.00017812143  1.6489246e-05  1.879183e-05   4.4905307e-05  9.4285714    
     24900   0.0027167222   0.00025373829  6.1730318e-06  1.2600461e-05  4.723358e-05   9.4285714    
     25000   0.0029322124   0.00019487108  3.289231e-05   9.5906775e-06  6.3386749e-05  9.4285714    
     25100   0.003021158    0.00015068976  3.756531e-05   2.4318903e-05  4.5538868e-05  9.4285714    
     25200   0.0030329306   0.00013399557  4.702507e-05   2.0981715e-05  6.0781268e-05  9.4285714    
     25300   0.0029341762   0.00020437325  6.0591502e-05  2.2629891e-05  5.4153425e-05  9.4285714    
     25400   0.0027687993   0.00026934851  2.7969897e-05  6.5874426e-06  7.8827194e-06  9.4285714    
     25500   0.0027175183   0.0002765371   4.2998035e-05  1.9257168e-06  2.0861824e-05  9.4285714    
     25600   0.0026714141   0.00021787103  4.1722274e-05  2.2462569e-05  3.746738e-05   9.4285714    
     25700   0.0026821665   0.00020853741  3.3506939e-05  1.303717e-05   3.2720799e-05  9.4285714    
     25800   0.0027091717   0.00019205312  5.1668074e-05  7.1425184e-06  5.9899856e-05  9.4285714    
     25900   0.0027616764   0.00012510749  5.1070709e-05  2.0121281e-05  6.1642728e-05  9.4285714    
     26000   0.0027377668   0.0001324356   4.4198644e-05  1.3362933e-05  5.0583889e-05  9.4285714    
     26100   0.0026751783   0.00018743877  4.9012909e-05  6.6240931e-06  5.8460928e-05  9.4285714    
     26200   0.0026796735   0.00016069588  4.6909578e-05  8.6657146e-06  4.2072897e-05  9.4285714    
     26300   0.0025859826   0.00013344395  2.9135475e-05 -8.5688129e-07  5.1295754e-05  9.4285714    
     26400   0.0025061386   0.00011514742  3.4537928e-05  3.5581351e-06  6.6460985e-05  9.4285714    
     26500   0.0023674203   0.00018961073  2.6569545e-05 -9.3379136e-07  5.2145115e-05  9.4285714    
     26600   0.00235948     0.0001970849   3.0332491e-05  5.2629832e-07  5.2968784e-05  9.4285714    
     26700   0.0024622221   0.00012369742  3.399782e-05   2.6648122e-05  9.2048095e-05  9.4285714    
     26800   0.0024340092   0.00014093305  1.8656673e-05  1.0807437e-05  5.9261791e-05  9.4285714    
     26900   0.0020440898   0.00021631726  4.3435947e-06  9.882077e-06   4.4220863e-05  9.4285714    
     27000   0.0020115213   0.00016989088  1.2616984e-05  1.3211843e-05  3.9477481e-05  9.4285714    
     27100   0.0021046105   0.00014132508  1.4329303e-05  1.6383493e-05  4.3953714e-05  9.4285714    
     27200   0.0022295144   0.00026273788  3.02267e-05    2.9332589e-05  5.2625321e-05  9.4285714    
     27300   0.0023711158   0.00029394664  3.97532e-05    2.5363982e-05  3.3570859e-05  9.4285714    
     27400   0.0026950391   0.00017600647  1.8671352e-05  3.1525332e-05  5.4811976e-05  9.4285714    
     27500   0.0027942798   0.00014667454  4.2724685e-05  4.1539152e-05  7.4000533e-05  9.4285714    
     27600   0.0026873849   0.00024650445  4.863843e-05   3.9609765e-05  4.4672774e-05  9.4285714    
     27700   0.0026609747   0.00026854535  2.2845194e-05  3.403517e-05   3.4363621e-05  9.4285714    
     27800   0.0027698444   0.0001416176   4.7689773e-05  4.2861023e-05  7.488006e-05   9.4285714    
     27900   0.0027614548   0.00011126319  4.0132988e-05  3.5183233e-05  7.3034069e-05  9.4285714    
     28000   0.002601026    0.00023305199  1.6754671e-05  2.1639563e-05  2.7932755e-05  9.4285714    
     28100   0.0025852905   0.00026565675  3.8411747e-05  3.5126684e-05  4.4503884e-05  9.4285714    
     28200   0.0026960922   0.00016224356  4.1940391e-05  4.1380562e-05  7.5047158e-05  9.4285714    
     28300   0.0025233691   0.00019516413  1.4451369e-05  3.9477334e-05  6.0537981e-05  9.4285714    
     28400   0.0022702789   0.00027913635  9.0169267e-06  3.9529852e-05  5.4946775e-05  9.4285714    
     28500   0.0023743163   0.0001940451   1.4299083e-05  4.5971448e-05  5.60135e-05    9.4285714    
     28600   0.0024438283   0.00017395075  3.5728326e-05  5.4282524e-05  6.646761e-05   9.4285714    
     28700   0.0026970886   0.00020269738  2.8876918e-05  4.9503156e-05  4.7807972e-05  9.4285714    
     28800   0.002839718    0.00029233584  8.173988e-06   5.7797605e-05  4.8354259e-05  9.4285714    
     28900   0.0029118564   0.00028058469  3.4927691e-05  5.9567634e-05  5.0168808e-05  9.4285714    
     29000   0.0029869264   0.00020471464  4.0335637e-05  5.9791879e-05  6.3939193e-05  9.4285714    
     29100   0.002990698    0.00018676547  2.4370455e-05  7.660402e-05   6.9543713e-05  9.4285714    
     29200   0.0029011373   0.00021938181  3.3145356e-05  4.7295624e-05  6.456528e-05   9.4285714    
     29300   0.0027060686   0.00026066892  3.5896336e-05  5.7788466e-05  4.4231128e-05  9.4285714    
     29400   0.002636237    0.00029661541  3.249788e-05   5.1385155e-05  7.8590486e-05  9.4285714    
     29500   0.0024976469   0.00039606261  3.3109745e-05 -3.1784764e-05  7.6788823e-05  9.4285714    
     29600   0.0025372074   0.00033478308  1.528004e-05  -6.6160927e-06  6.4845207e-05  9.4285714    
     29700   0.0025931904   0.00031005948  2.9999143e-05  5.0757518e-05  7.667946e-05   9.4285714    
     29800   0.0026496      0.00025806006  4.2176896e-05  4.8749184e-05  7.8237983e-05  9.4285714    
     29900   0.0026445152   0.0002280856   8.8618878e-06  2.9536483e-05  9.2940561e-05  9.4285714    
     30000   0.0026325796   0.00024401212  3.2460805e-05  5.0188032e-05  8.3304839e-05  9.4285714    
     30100   0.0027455119   0.00023672524  4.7031953e-05  4.8842287e-05  6.2256955e-05  9.4285714    
     30200   0.0030568429   0.00022663383  3.6690447e-05  3.4211543e-05  8.8987056e-05  9.4285714    
     30300   0.0030882035   0.00023834332  4.4090549e-05  3.7630532e-05  9.0079668e-05  9.4285714    
     30400   0.0030775467   0.00021854412  5.2558188e-05  3.6194464e-05  8.857909e-05   9.4285714    
     30500   0.0030262943   0.00024092794  4.7054243e-05  2.653524e-05   8.3682355e-05  9.4285714    
     30600   0.0029847369   0.00025696727  3.95211e-05    2.3557697e-05  5.9772786e-05  9.4285714    
     30700   0.0030221302   0.00019883406  3.753824e-05   3.1447731e-05  7.7969572e-05  9.4285714    
     30800   0.003035602    0.00017234226  4.4150361e-05  4.1474907e-05  8.8330266e-05  9.4285714    
     30900   0.0030135343   0.00019876146  5.4330557e-05  4.3963833e-05  7.9327378e-05  9.4285714    
     31000   0.0030241303   0.00017771474  5.6534119e-05  5.0897765e-05  7.8862515e-05  9.4285714    
     31100   0.0029609535   0.00016670586  4.8523967e-05  3.4605829e-05  8.7141434e-05  9.4285714    
     31200   0.0026280903   0.00024099735  2.8118157e-05 -3.1267849e-06  3.9037659e-05  9.4285714    
     31300   0.002521513    0.00041979953  3.0764914e-05  6.12093e-06    4.9978686e-05  9.4285714    
     31400   0.0023469026   0.000598076    4.017046e-05   1.3948244e-05  7.8757875e-05  9.4285714    
     31500   0.0024620568   0.0004714887   3.0457601e-05 -3.5738746e-07  4.4966439e-05  9.4285714    
     31600   0.0026500386   0.0002280198   4.2041078e-05  2.5682583e-05  0.00010387966  9.4285714    
     31700   0.0026972875   0.00020057602  4.7824901e-05  4.2988423e-05  8.1070368e-05  9.4285714    
     31800   0.0026270209   0.00031209479  3.1047448e-05  2.6327436e-05  5.3911989e-05  9.4285714    
     31900   0.0026094137   0.00029261647  4.2292115e-05  2.6228805e-05  6.643434e-05   9.4285714    
     32000   0.0026537929   0.00019060215  5.1619011e-05  3.6025816e-05  6.8892602e-05  9.4285714    
     32100   0.002568903    0.00018759451  3.8539247e-05  4.3089102e-05  6.5855393e-05  9.4285714    
     32200   0.0022286603   0.00036746944 -2.2134837e-05  1.6662113e-05  3.529827e-05   9.4285714    
     32300   0.0021836136   0.00031204298  5.7694675e-06  2.5288092e-05  4.2867644e-05  9.4285714    
     32400   0.0021937142   0.00024434277  4.1551627e-06  2.5038595e-05  6.7566581e-05  9.4285714    
     32500   0.0022388814   0.00021598656  8.7896978e-06  2.9067648e-05  5.8226887e-05  9.4285714    
     32600   0.0021576398   0.00029052102  1.9933839e-05  4.3768684e-05  5.2938779e-05  9.4285714    
     32700   0.0022011959   0.00025841309  1.445717e-05   3.0207726e-05  3.2483351e-05  9.4285714    
     32800   0.0022659259   0.00018172553  3.1353883e-05  3.3861848e-05  9.3146948e-05  9.4285714    
     32900   0.0022188043   0.00016359575  7.8263484e-06  4.1826514e-05  9.0086352e-05  9.4285714    
     33000   0.0020888586   0.00022772359 -2.9662011e-06  2.9078182e-05  5.8144067e-06  9.4285714    
     33100   0.0019993268   0.00026834381  9.2983983e-06  1.8869328e-05  2.7381204e-05  9.4285714    
     33200   0.0021191186   0.00017429165  1.8528827e-05  3.6366609e-05  5.5515199e-05  9.4285714    
     33300   0.0019827859   0.00020091822  2.2686148e-05  3.8049083e-05  5.6841865e-05  9.4285714    
     33400   0.0018768904   0.00029647732  3.149156e-05   2.1413998e-05  6.0660766e-05  9.4285714    
     33500   0.0018864715   0.00031732039  8.1972464e-06  3.2294839e-05  4.1670501e-05  9.4285714    
     33600   0.001876119    0.00028792758  2.4010767e-05  3.9004561e-05  4.3008029e-05  9.4285714    
     33700   0.0019594254   0.00018920804  2.1551954e-05  3.2523696e-05  6.9052937e-05  9.4285714    
     33800   0.0019205757   0.00021281331  1.0905641e-05  2.3520843e-05  6.8911132e-05  9.4285714    
     33900   0.0018471413   0.00029351029  2.0042628e-05  3.0544778e-05  6.0459493e-05  9.4285714    
     34000   0.0018826321   0.00025119939  1.6424322e-05  3.7540933e-05  6.1093424e-05  9.4285714    
     34100   0.0019335515   0.00015048441  2.3353469e-05  2.8045456e-05  8.3525918e-05  9.4285714    
     34200   0.0018859506   0.00017383553  1.2343977e-05  1.6330645e-05  6.8707692e-05  9.4285714    
     34300   0.0018548224   0.00017859536  7.5004545e-06  3.9476096e-06  6.779785e-05   9.4285714    
     34400   0.0018221757   0.00014986962  2.8517624e-05  1.4188225e-05  7.5629352e-05  9.4285714    
     34500   0.0016371986   0.00020918465  2.9059031e-05  2.0480294e-05  3.1679869e-05  9.4285714    
     34600   0.0016711322   0.00025383755  1.1770058e-05  1.2868382e-05  5.428564e-05   9.4285714    
     34700   0.001850233    0.00023963054  2.8690384e-05  3.1300173e-05  7.3363944e-05  9.4285714    
     34800   0.0020068613   0.00019346239  2.6156531e-05  2.7283478e-05  4.8316774e-05  9.4285714    
     34900   0.0021604978   0.00017356705  2.2535222e-05  3.1447276e-05  7.8504739e-05  9.4285714    
     35000   0.0021882012   0.00020313046  2.5119823e-05  4.4516455e-05  6.7579907e-05  9.4285714    
     35100   0.0021816795   0.00020105434  1.4017496e-05  4.2625468e-05  5.2829702e-05  9.4285714    
     35200   0.0021721708   0.00017684198  3.8971119e-05  4.4615858e-05  6.826154e-05   9.4285714    
     35300   0.0021754972   0.00016132852  3.2505166e-05  2.7921159e-05  6.1873364e-05  9.4285714    
     35400   0.0021567793   0.00018058689  1.7203519e-05  4.4370434e-05  5.2158068e-05  9.4285714    
     35500   0.0021135783   0.00019202537  3.0717468e-05  4.9987314e-05  5.733108e-05   9.4285714    
     35600   0.0021123249   0.00017785853  2.9955429e-05  3.3573858e-05  3.936929e-05   9.4285714    
     35700   0.0021539669   0.00014575754  2.3806577e-05  5.6825289e-05  5.3768271e-05  9.4285714    
     35800   0.0020455954   0.00017380285  3.1085886e-05  6.1765408e-05  5.474465e-05   9.4285714    
     35900   0.0020102552   0.00020452905  2.2920835e-05  3.4059036e-05  2.9350921e-05  9.4285714    
     36000   0.0019801813   0.0001943572   2.1936663e-05  2.7186346e-05  4.3216661e-05  9.4285714    
     36100   0.0018850971   0.00015849646  2.3120744e-05  1.7127771e-05  3.0438358e-05  9.4285714    
     36200   0.0018679562   0.00015917374  2.1182673e-05  2.3891589e-05  2.8045766e-05  9.4285714    
     36300   0.0018292701   0.00016995065  1.8128249e-05  2.5144228e-05  5.3313806e-05  9.4285714    
     36400   0.001874316    0.00014430875  3.2973812e-05  4.22199e-05    4.6473137e-05  9.4285714    
     36500   0.0019044331   0.00013400732  3.5321513e-05  4.9469625e-05  4.5118209e-05  9.4285714    
     36600   0.0018802314   0.00012988732  1.5044367e-05  4.4653432e-05  5.4950497e-05  9.4285714    
     36700   0.0018441502   0.00013025297  1.8835561e-05  3.287944e-05   3.6520235e-05  9.4285714    
     36800   0.0017129302   0.00016558362  2.1823279e-05 -1.4354795e-05  5.01854e-05    9.4285714    
     36900   0.0014873503   0.00021218986  8.4667079e-06 -3.0794781e-05  5.0249457e-05  9.4285714    
     37000   0.0013969846   0.00017344872  1.4525779e-05  1.2480261e-05  4.2799458e-05  9.4285714    
     37100   0.0014330027   0.00017016871  1.5311577e-05 -3.2252471e-05  6.2014154e-05  9.4285714    
     37200   0.0014538038   0.00013619408  1.9432955e-05  3.7960217e-05  5.8969701e-05  9.4285714    
     37300   0.0014629174   0.00013812497 -3.9199449e-06  1.7261738e-05  3.3058731e-05  9.4285714    
     37400   0.0014024405   0.00016060062 -2.7500148e-06  2.3380895e-05  2.3936185e-05  9.4285714    
     37500   0.0013754421   0.00014264996  3.8514176e-06  2.6894405e-05  2.7378848e-05  9.4285714    
     37600   0.0013738149   0.00010956638 -1.9314325e-06  1.6052747e-05  2.3253551e-05  9.4285714    
     37700   0.0013449495   0.00011873251  2.3602088e-05  2.1000974e-05  5.8034639e-05  9.4285714    
     37800   0.0013413558   0.00013590804  6.553737e-06   1.5420826e-05  3.422998e-05   9.4285714    
     37900   0.0013521728   0.00012115869 -7.558707e-07   1.3498371e-05  2.4476192e-05  9.4285714    
     38000   0.0013579984   9.8078819e-05  2.7188052e-05  1.7957881e-05  6.7934664e-05  9.4285714    
     38100   0.0013585773   8.5568464e-05  5.3805202e-06  1.7987375e-05  4.2008584e-05  9.4285714    
     38200   0.0012930923   0.0001218232   1.3233746e-06  1.1165992e-05  3.2998199e-05  9.4285714    
     38300   0.0012673868   0.00012275237  1.4054543e-05  2.1262101e-05  1.1903809e-05  9.4285714    
     38400   0.0012562626   9.6066607e-05  7.7096753e-06  1.3748909e-05  1.6949674e-05  9.4285714    
     38500   0.0012124395   0.00011658772  1.3850145e-05  9.4511514e-06  2.1494105e-05  9.4285714    
     38600   0.0012208622   0.00010142116  1.1444608e-05  1.8379394e-05  1.3877294e-05  9.4285714    
     38700   0.0012363071   9.3222732e-05  4.0189507e-06  1.4774027e-05  5.0277283e-05  9.4285714    
     38800   0.0012170927   0.00011035233  6.3810997e-06  2.45539e-05    3.8479977e-05  9.4285714    
     38900   0.0012315134   0.00010499675  4.0057239e-06  1.8584033e-05  3.0382759e-05  9.4285714    
     39000   0.0012338284   0.00010284562  8.7502333e-06  1.4752838e-05  5.6598592e-05  9.4285714    
     39100   0.0012463995   8.7826917e-05  2.1602906e-06  1.9491444e-05  4.8521169e-05  9.4285714    
     39200   0.0012731073   8.1787578e-05  1.60553e-06    1.9379538e-05  4.3619114e-05  9.4285714    
     39300   0.0012881476   9.4790135e-05  1.7206019e-05  2.0552199e-05  5.3035951e-05  9.4285714    
     39400   0.0013565704   9.9513791e-05  5.5978937e-06  1.6602825e-05  4.4924699e-05  9.4285714    
     39500   0.0014480107   8.7819725e-05  9.534179e-06   2.8003047e-05  4.7976274e-05  9.4285714    
     39600   0.0015356993   8.0205531e-05  2.4554172e-05  2.4973522e-05  5.4305917e-05  9.4285714    
     39700   0.0016241479   8.5360025e-05  1.652465e-05   9.7541063e-06  4.6458061e-05  9.4285714    
     39800   0.0016479623   7.7345487e-05  3.6735793e-05  2.3815475e-05  5.5845411e-05  9.4285714    
     39900   0.0016533139   7.3324678e-05  3.2249803e-05  1.9626693e-05  5.584284e-05   9.4285714    
     40000   0.0016478224   7.6802581e-05  2.6642237e-05  8.7170608e-06  4.7754253e-05  9.4285714    
     40100   0.0016246845   7.550471e-05   3.0939938e-05  1.5178961e-05  4.9695205e-05  9.4285714    
     40200   0.0015892479   8.6974217e-05  2.4012174e-05 -3.8179781e-06  3.7506731e-05  9.4285714    
     40300   0.001591749    8.8332815e-05  2.6156219e-05  9.9827367e-06  3.5659451e-05  9.4285714    
     40400   0.001593718    9.6294499e-05  2.7164292e-05  2.5060735e-05  5.4360771e-05  9.4285714    
     40500   0.0015702948   0.00011274659  2.958176e-05   1.3916406e-06  5.1028453e-05  9.4285714    
     40600   0.0015941007   8.2686866e-05  3.6535266e-05  2.1127488e-05  5.2727175e-05  9.4285714    
     40700   0.0016263267   5.617377e-05   2.7548063e-05  2.6085086e-05  6.8238755e-05  9.4285714    
     40800   0.0016282309   5.8245838e-05  2.8112043e-05  1.545113e-05   5.6986217e-05  9.4285714    
     40900   0.0016150822   7.173024e-05   3.5060392e-05  1.8203671e-05  5.6945106e-05  9.4285714    
     41000   0.0016268909   5.7955451e-05  2.75141e-05    1.4345727e-05  6.3890358e-05  9.4285714    
     41100   0.0016290184   4.8580868e-05  2.8515193e-05  1.948993e-05   5.6185092e-05  9.4285714    
     41200   0.0016081448   6.2475376e-05  2.72881e-05    1.9479772e-05  5.4475731e-05  9.4285714    
     41300   0.0015827091   7.3424515e-05  1.7458302e-05  1.571511e-05   5.12865e-05    9.4285714    
     41400   0.0015754886   7.2346869e-05  2.3379577e-05  2.187414e-05   3.9411105e-05  9.4285714    
     41500   0.001570225    6.1065327e-05  7.3825867e-06  2.0202295e-05  5.6104696e-05  9.4285714    
     41600   0.0014693608   6.6907698e-05 -1.121525e-05   1.6207668e-05  5.2306473e-05  9.4285714    
     41700   0.0013656515   9.7012025e-05  4.7987436e-06  2.4603174e-05  4.0593206e-05  9.4285714    
     41800   0.0013061566   0.00015567049 -2.0239756e-05  1.8370854e-05  5.0657526e-05  9.4285714    
     41900   0.0013193685   0.0001522451  -6.1274597e-06  1.8574278e-05  5.5853513e-05  9.4285714    
     42000   0.0013567313   8.1302022e-05  2.0153953e-05  1.3435247e-05  7.9185681e-05  9.4285714    
     42100   0.0014535329   6.3999085e-05  6.6394395e-07  1.5036029e-05  6.488863e-05   9.4285714    
     42200   0.0015118598   0.00011877004  1.885025e-05   2.3823564e-05  6.2745113e-05  9.4285714    
     42300   0.001506797    0.00012086327  2.4542398e-05  8.3696205e-06  8.2522938e-05  9.4285714    
     42400   0.0015415618   9.6477925e-05  7.07489e-06    8.5853102e-06  6.7753342e-05  9.4285714    
     42500   0.0015056607   0.00013480364  3.301835e-05   2.684721e-05   8.6581806e-05  9.4285714    
     42600   0.0015294243   0.0001023587   2.3165736e-05  2.0373009e-05  6.8931752e-05  9.4285714    
     42700   0.0015060203   8.8828458e-05  1.8384746e-05  3.1578112e-05  5.4800148e-05  9.4285714    
     42800   0.0014401953   0.00014283643  3.2365896e-05  1.4409094e-05  7.815642e-05   9.4285714    
     42900   0.0014460577   0.00013696602  1.667011e-05  -4.4379353e-06  6.9141501e-05  9.4285714    
     43000   0.0014595646   0.00010723717  2.6043759e-05  2.406864e-05   5.9920277e-05  9.4285714    
     43100   0.0014534492   0.00010311781  2.8863148e-05  3.2371599e-05  6.2125564e-05  9.4285714    
     43200   0.0014359397   0.00011929844  1.5364153e-05  1.1468482e-05  6.1684188e-05  9.4285714    
     43300   0.0014172869   0.00012599178  2.2607926e-05  2.0938401e-05  3.3557833e-05  9.4285714    
     43400   0.0013667717   0.00013526296  6.8066646e-06  2.4357465e-05  6.653287e-06   9.4285714    
     43500   0.0013591632   0.00010660211  1.8515449e-05  1.6789438e-05  4.5492723e-06  9.4285714    
     43600   0.001381715    0.00012327694  3.5782908e-05  2.8056666e-05 -1.1197118e-05  9.4285714    
     43700   0.0014886114   0.00016275836  1.1725528e-05  2.3551828e-05  2.7622441e-05  9.4285714    
     43800   0.001648024    0.00017978268  3.0880052e-05  2.7193614e-05  2.5804868e-05  9.4285714    
     43900   0.0017741528   0.0001506804   4.654234e-05   3.6882276e-05 -1.0620736e-05  9.4285714    
     44000   0.0017615335   0.00015392713  3.2459328e-05  3.6082429e-05  1.759168e-05   9.4285714    
     44100   0.0017370624   0.00016685358  3.7980024e-05  4.0928736e-05 -1.3851348e-05  9.4285714    
     44200   0.0017492805   0.00015343115  3.6875296e-05  4.5250008e-05  3.5418078e-06  9.4285714    
     44300   0.0017858293   0.00011165541  4.4516636e-05  4.6617441e-05  6.0464967e-05  9.4285714    
     44400   0.001786406    0.00010231551  4.468546e-05   4.6614811e-05  2.6990651e-05  9.4285714    
     44500   0.0017444635   0.00013232979  3.5307146e-05  4.465114e-05   3.9585781e-05  9.4285714    
     44600   0.0017161355   0.00012497305  1.9434195e-05  3.6131586e-05  4.3294945e-05  9.4285714    
     44700   0.0013892041   0.00013468631  1.0963014e-05  1.5874638e-05  5.2848765e-05  9.4285714    
     44800   0.0013308943   0.0001625196   3.6719198e-05 -1.2627379e-06  5.7903272e-05  9.4285714    
     44900   0.001371886    0.00015007053  2.7177564e-05  1.2739255e-05  3.8887291e-05  9.4285714    
     45000   0.0014304827   0.00010312891  3.1777853e-05  5.7021999e-06  3.8487884e-05  9.4285714    
     45100   0.0013779021   0.00012585988  3.3826839e-05 -4.88317e-07    6.0819845e-05  9.4285714    
     45200   0.0014112149   0.00011062146  2.2972267e-05 -1.635832e-05   3.974211e-05   9.4285714    
     45300   0.0014370277   0.00010791147  3.1012803e-05  2.941947e-05   6.3602744e-05  9.4285714    
     45400   0.0014916164   9.5833131e-05  3.5363655e-05  2.0989344e-05  6.6697633e-05  9.4285714    
     45500   0.0015489886   8.581935e-05   3.5630312e-05  5.9015403e-06  4.8194771e-05  9.4285714    
     45600   0.0015996507   9.3042723e-05  3.5003666e-05  3.2064034e-05  6.5023697e-05  9.4285714    
     45700   0.0016265286   0.00010332633  2.0182e-05     2.2282671e-05  5.105946e-05   9.4285714    
     45800   0.0016874315   0.00010332681  3.7876088e-05  1.3460214e-05  5.3074549e-05  9.4285714    
     45900   0.0016522816   0.00012118101  3.0605974e-05  1.4589931e-05  5.1405976e-05  9.4285714    
     46000   0.0015964958   0.00017302784  9.7246693e-06 -7.711391e-06   3.7082972e-05  9.4285714    
     46100   0.0016254795   0.00016271672  3.7930824e-05  2.931322e-05   4.6527541e-05  9.4285714    
     46200   0.0016645991   0.00013161991  4.5383659e-05  2.9415845e-05  5.7215075e-05  9.4285714    
     46300   0.0016479463   0.00012131689  3.3657174e-05  6.3869817e-06  4.2311554e-05  9.4285714    
     46400   0.0016187021   0.0001253012   4.2107932e-05  6.0367778e-05  2.8842259e-05  9.4285714    
     46500   0.0015544125   0.00012935237  4.9785127e-05  2.3934872e-05  2.5242947e-05  9.4285714    
     46600   0.0015188623   0.00015875138  2.8796809e-05  1.7369881e-05 -2.0740942e-05  9.4285714    
     46700   0.0015910271   0.00012870325  6.1930184e-05  7.0166385e-05  1.7159474e-05  9.4285714    
     46800   0.0016394146   0.00012483074  5.3360954e-05  3.1628615e-05  3.7534004e-05  9.4285714    
     46900   0.0016480429   0.00015502963  4.8654469e-05  3.3584738e-05  1.3665391e-05  9.4285714    
     47000   0.0017301606   0.00014785686  6.0323113e-05  4.6438442e-05  4.2400121e-05  9.4285714    
     47100   0.0017634468   0.00016024204  5.0744964e-05  2.0972983e-05  3.2736986e-05  9.4285714    
     47200   0.0018588764   0.0001478449   6.3727753e-05  3.5968759e-05  2.4288371e-05  9.4285714    
     47300   0.0017891283   0.00015842583  4.858986e-05   4.7951986e-05  5.6198902e-05  9.4285714    
     47400   0.0017145631   0.00017793582  2.9552963e-05  1.9789168e-05  2.8491776e-05  9.4285714    
     47500   0.0016496968   0.00020730357  3.6591096e-05  8.1901367e-06  2.4947727e-05  9.4285714    
     47600   0.0014395272   0.00015423582  2.4245133e-05  2.8556664e-05  3.6767261e-05  9.4285714    
     47700   0.0013593053   0.00016408068  1.7039497e-05  3.9770182e-05  2.8597704e-05  9.4285714    
     47800   0.0014787657   0.00016558617  3.5758701e-05  4.854939e-06   5.5576821e-05  9.4285714    
     47900   0.0014972836   0.00015516982  4.6568298e-05  3.0552716e-05  5.3271957e-05  9.4285714    
     48000   0.0014969219   0.00012866     3.5734516e-05  5.2731352e-05  1.8493987e-05  9.4285714    
     48100   0.0014913929   0.00013438381  4.3552263e-05  4.5503744e-05  2.8312362e-05  9.4285714    
     48200   0.0015706732   0.0001786234   4.5269431e-05  3.5822399e-05  3.8829247e-05  9.4285714    
     48300   0.0017092636   0.00018873952  3.8925617e-05  3.2606447e-05  1.0928845e-05  9.4285714    
     48400   0.0014642343   0.0001999758   1.9916585e-05  7.4196971e-05  3.869226e-05   9.4285714    
     48500   0.0014873216   0.00020383842  1.553881e-05   5.9939183e-05  6.1525746e-05  9.4285714    
     48600   0.0014855759   0.00018873132  4.257118e-05   2.2786951e-05  5.6041103e-05  9.4285714    
     48700   0.001369688    0.00027461911  3.8564376e-05  4.203652e-05   5.7378636e-05  9.4285714    
     48800   0.001452806    0.00016943019  2.6784742e-05  4.643909e-05   1.1428538e-05  9.4285714    
     48900   0.0014732057   0.00011870254  4.1348189e-05  2.5372561e-05  6.6865986e-05  9.4285714    
     49000   0.001355261    0.00020670576  2.8601387e-05 -5.5741506e-06  6.678096e-05   9.4285714    
     49100   0.0012984604   0.00020788316  1.8914907e-05 -1.3816333e-05 -6.9325954e-06  9.4285714    
     49200   0.0012788066   0.00015938093 -7.4936577e-06  3.1349374e-05  3.6527232e-05  9.4285714    
     49300   0.0012675418   0.00011599695  3.1339445e-06  2.9054654e-05  4.6133246e-05  9.4285714    
     49400   0.0012022169   0.00018573232  2.6326071e-05 -9.1784297e-06  2.1394583e-05  9.4285714    
     49500   0.0011599195   0.00022385814  6.922662e-06   1.0431007e-05  3.54105e-05    9.4285714    
     49600   0.0012464697   0.00014837791  1.6913605e-05  1.3327322e-05  1.1758052e-05  9.4285714    
     49700   0.0013302376   0.00010173502  3.5158639e-05  1.748309e-05   6.2009381e-05  9.4285714    
     49800   0.0012464081   0.00018042397  2.1707321e-05  1.8682398e-05  6.1334638e-05  9.4285714    
     49900   0.0012257752   0.00019982456  1.4095534e-05  1.5475395e-05 -1.1776389e-06  9.4285714    
     50000   0.0013160058   0.00010363608  3.4456775e-05  4.5201852e-05  5.8301951e-05  9.4285714    
     50100   0.0013269016   8.0280605e-05  3.1745017e-05  4.2970447e-05  7.1661992e-05  9.4285714    
     50200   0.0012393128   0.00016200308  1.1510034e-05  1.794868e-05   2.4409954e-05  9.4285714    
     50300   0.0012394692   0.0001579953   2.3057539e-05  3.1366241e-05  3.5912432e-05  9.4285714    
     50400   0.0012844461   8.1571878e-05  2.2169475e-05  3.7406586e-05  5.2371555e-05  9.4285714    
     50500   0.0011887888   0.00011095184 -2.1877991e-05  2.4856219e-06  5.5111247e-05  9.4285714    
     50600   0.0011403208   0.00012542777 -1.225719e-06   1.9677743e-05  3.9263522e-05  9.4285714    
     50700   0.0011218071   0.00013774393  2.3660386e-05  2.9565959e-05  3.0933375e-05  9.4285714    
     50800   0.0011837336   9.949687e-05   1.5209706e-05  2.0062685e-05  4.2435073e-05  9.4285714    
     50900   0.0011719865   0.00010034611  2.7243849e-05  2.5835903e-05  7.7843313e-05  9.4285714    
     51000   0.0011384117   0.0001260108   2.0547121e-05  1.7049114e-05  3.946741e-05   9.4285714    
     51100   0.0011567021   0.00011316715  8.6308125e-06  7.4186836e-06  4.2730435e-05  9.4285714    
     51200   0.0011557724   0.00010570269  6.5314339e-06  2.4385921e-05  9.2505382e-05  9.4285714    
     51300   0.0011782021   9.8091337e-05  9.3727532e-06  1.9478334e-05  3.2318687e-05  9.4285714    
     51400   0.0011324326   0.00011420116 -7.628728e-06  -1.8354274e-06  3.6693019e-05  9.4285714    
     51500   0.001136855    0.00012598563  1.064482e-05   9.2677914e-06  4.7402412e-05  9.4285714    
     51600   0.0011474093   0.00015973134  1.2855075e-05  9.177821e-06   2.7653608e-05  9.4285714    
     51700   0.0011509822   0.00017265181  1.7692152e-05  1.8698301e-05  4.4884386e-05  9.4285714    
     51800   0.0011902112   0.00012254219  3.3357643e-05  2.6988402e-05  4.8732579e-05  9.4285714    
     51900   0.0011960386   9.3731042e-05  2.8553007e-05  1.5241833e-05  4.4155148e-05  9.4285714    
     52000   0.0011497258   0.00013789279  1.9876349e-05  2.5066654e-05  4.8657932e-05  9.4285714    
     52100   0.001132268    0.00015645519  2.2105967e-05  1.1864722e-05  2.3663375e-05  9.4285714    
     52200   0.0011613194   0.00011705418  3.145782e-05   1.0961802e-05  3.7416732e-05  9.4285714    
     52300   0.0011660311   9.0644707e-05  3.0121778e-05  1.9424805e-05  5.4949708e-05  9.4285714    
     52400   0.0011402966   0.00010618748  2.0068248e-05 -2.3784327e-06  3.2820561e-05  9.4285714    
     52500   0.0011098121   0.00013770641  2.2299669e-05  1.5722384e-05  3.4263511e-05  9.4285714    
     52600   0.001133535    0.00012272175  2.7560905e-05  1.1770726e-05  4.0440438e-05  9.4285714    
     52700   0.0011615577   0.00011393082  1.8175717e-05 -8.6612242e-06  3.2229655e-05  9.4285714    
     52800   0.0012158904   0.00010902398  2.9427741e-05  1.1857257e-05  3.8456604e-05  9.4285714    
     52900   0.0012733748   0.00011272733  3.543645e-05   8.8912768e-06  2.8189937e-05  9.4285714    
     53000   0.001357344    0.0001110287   3.1512433e-05  1.6286638e-05  2.8513132e-05  9.4285714    
     53100   0.0013658961   0.0001201139   2.9251606e-05  1.5493387e-05  5.2544957e-05  9.4285714    
     53200   0.0013478169   0.00012043511  3.1938725e-05  1.041477e-05   3.6320875e-05  9.4285714    
     53300   0.0013413697   0.00010999908  3.2160818e-05  1.1495749e-05  2.3046172e-05  9.4285714    
     53400   0.0013322541   0.00011179686  3.1184498e-05  1.9350782e-05  4.1960514e-05  9.4285714    
     53500   0.001331207    0.00010878385  2.9032944e-05  1.9024792e-05  2.3674065e-05  9.4285714    
     53600   0.0013188686   9.8743446e-05  4.1225575e-05  9.0408692e-07  1.7663849e-05  9.4285714    
     53700   0.0012949715   9.8932946e-05  2.2881538e-05  9.1181445e-06  2.9395809e-05  9.4285714    
     53800   0.0013053181   0.00010119696  9.2769924e-06  1.2956743e-05  2.1376276e-05  9.4285714    
     53900   0.0013033384   8.6418242e-05  2.2728988e-05  2.2667048e-05  3.8835324e-05  9.4285714    
     54000   0.0012864372   8.8317934e-05  1.9525532e-05  2.8962662e-05  3.6292006e-05  9.4285714    
     54100   0.0012759008   9.7502943e-05  1.8896831e-05  2.3495162e-05  4.7140522e-05  9.4285714    
     54200   0.0012408895   9.3470966e-05  1.2154306e-05  3.5077599e-05  4.9811687e-05  9.4285714    
     54300   0.0011230372   9.3651214e-05  1.5071885e-05  2.9234387e-05  2.9882173e-05  9.4285714    
     54400   0.0011100393   0.00010618742  1.5084283e-05  2.1885739e-05  2.0118422e-05  9.4285714    
     54500   0.0010881783   0.0001180687   1.2142782e-05  5.3420198e-05  2.1979029e-05  9.4285714    
     54600   0.0010637592   0.00011565236  6.3487795e-07  3.4257119e-05  1.1845802e-05  9.4285714    
     54700   0.0010458955   0.00010866079  1.1894349e-05  1.9780075e-05  1.0481453e-05  9.4285714    
     54800   0.0010299676   0.00011236601  1.8083854e-05  4.0603914e-05  1.6733729e-05  9.4285714    
     54900   0.0010379301   9.9138247e-05  1.1773034e-05  5.747168e-06   1.3417331e-05  9.4285714    
     55000   0.00094802118  0.00012214284  6.3642472e-06 -3.0509083e-05  1.9715502e-05  9.4285714    
     55100   0.00090157799  0.00015050034 -3.8763219e-06 -2.2149629e-05  2.8090966e-05  9.4285714    
     55200   0.00094189746  0.00011694367 -1.4904761e-06 -3.8842707e-06  3.6900661e-05  9.4285714    
     55300   0.0009432654   9.6646622e-05  6.5478695e-06  1.2871183e-05  3.9095529e-05  9.4285714    
     55400   0.00088835916  8.6162346e-05  7.7540993e-06  1.1646663e-05  2.8498352e-05  9.4285714    
     55500   0.00084762122  0.00011060067 -4.0003671e-06 -1.4114419e-06  2.6466119e-05  9.4285714    
     55600   0.00088758051  0.00013728575 -1.6030488e-05 -2.3860687e-06  2.6356634e-05  9.4285714    
     55700   0.0009275046   0.00014053648 -2.1858046e-06 -2.1657394e-06  1.3912345e-05  9.4285714    
     55800   0.001007922    0.00010823427 -6.673972e-07   6.2165269e-06 -5.3752624e-06  9.4285714    
     55900   0.0010054228   0.00013287743  1.1781118e-05  1.6444851e-05  3.0047825e-05  9.4285714    
     56000   0.00097915772  0.00016117827 -1.1710097e-05  1.6756233e-06  2.5600472e-05  9.4285714    
     56100   0.0010117396   9.9512122e-05  4.1969613e-06  1.5733481e-05 -5.0065198e-06  9.4285714    
     56200   0.00098000486  8.8182358e-05  2.9631324e-05  3.7500632e-05  1.9627728e-05  9.4285714    
     56300   0.00094502097  0.00011301396 -7.7154928e-06  2.6741122e-08  5.399368e-06   9.4285714    
     56400   0.00095082992  0.00010411533  8.7185826e-06  1.948343e-05   3.3676751e-06  9.4285714    
     56500   0.00096194004  8.5786094e-05  2.5224206e-05  2.5489078e-05  2.8859297e-05  9.4285714    
     56600   0.00094837067  8.6174529e-05  2.1062022e-07 -7.247127e-06   1.4423888e-05  9.4285714    
     56700   0.00094365948  8.4884175e-05  1.0276281e-05  1.867808e-05   1.1418962e-05  9.4285714    
     56800   0.00094975706  7.8215615e-05  1.994628e-05   2.2423139e-05  2.038584e-05   9.4285714    
     56900   0.0009443239   6.9298712e-05  1.3975878e-05  7.958302e-06   2.2309461e-05  9.4285714    
     57000   0.00095262208  6.0418426e-05  7.1621231e-06  2.7245398e-05  2.8829484e-05  9.4285714    
     57100   0.00099314127  7.9554124e-05  2.7322083e-06  1.2987281e-05  3.5261681e-05  9.4285714    
     57200   0.0012399687   8.2359427e-05  1.8061362e-05  1.1739939e-05  2.4554529e-05  9.4285714    
     57300   0.0013461313   5.7397817e-05  1.9815486e-05  3.2792273e-05  3.183588e-05   9.4285714    
     57400   0.0013323905   5.3962022e-05  1.5288596e-05  3.8813243e-05  3.9254401e-05  9.4285714    
     57500   0.0012758084   8.9353152e-05  2.2218396e-05  3.1471597e-05  2.7971909e-05  9.4285714    
     57600   0.0012727664   0.00010162211  2.0204445e-05  3.7491586e-05  2.932773e-05   9.4285714    
     57700   0.0012868996   7.2593832e-05  1.5907875e-05  4.3222628e-05  3.3660306e-05  9.4285714    
     57800   0.001253751    5.9402285e-05  1.6121033e-05  2.3552611e-05  3.4661003e-05  9.4285714    
     57900   0.0011468748   0.00011333823 -1.6627731e-05 -2.2897578e-05  4.8968337e-05  9.4285714    
     58000   0.0011116216   0.00010567148  9.4344364e-06  1.2668627e-05  4.4304122e-05  9.4285714    
     58100   0.0011284205   9.2386259e-05  1.4012605e-05  1.8308177e-05  2.999362e-05   9.4285714    
     58200   0.0011682819   6.5850912e-05  1.0628582e-05  2.2764864e-05  5.5594386e-05  9.4285714    
     58300   0.001157672    6.5751682e-05  6.0880123e-05  2.7046343e-05  5.373598e-05   9.4285714    
     58400   0.0011430037   7.3345241e-05  1.9897087e-05  2.018841e-05   2.6336985e-05  9.4285714    
     58500   0.0011323535   7.2211516e-05  2.6778456e-05  2.6851723e-05  3.6365029e-05  9.4285714    
     58600   0.0011454666   7.0635517e-05  3.9696151e-05  5.6488179e-07  3.7563034e-05  9.4285714    
     58700   0.0011581982   6.113688e-05   1.9512763e-05  2.0865238e-05  4.8335076e-05  9.4285714    
     58800   0.0011519323   8.2957631e-05  4.0621982e-05  2.7578437e-05  4.8338553e-05  9.4285714    
     58900   0.0011712918   7.9957028e-05  2.0916183e-05  5.5117802e-06  3.5116581e-05  9.4285714    
     59000   0.0011729778   5.9631749e-05  3.6067764e-05  2.6501802e-05  4.4348503e-05  9.4285714    
     59100   0.0010301133   9.8082814e-05  1.4880024e-05 -2.0561887e-05  3.1774231e-05  9.4285714    
     59200   0.0009192762   0.00016439627 -1.7031645e-06 -4.3742837e-05  2.5527038e-05  9.4285714    
     59300   0.00088654336  0.00022149546  2.8868501e-05 -1.1726329e-05  4.1100162e-05  9.4285714    
     59400   0.00090317343  0.00021058363  7.706949e-06  -1.2300933e-07  4.37854e-05    9.4285714    
     59500   0.00099121664  0.0001102866   1.7424658e-05  1.572592e-05   4.7045868e-05  9.4285714    
     59600   0.0010238935   7.3828283e-05  4.2695989e-05  4.4550465e-05  5.0765007e-05  9.4285714    
     59700   0.0010503024   6.4370894e-05  1.5170449e-05  2.1015625e-05  4.0755001e-05  9.4285714    
     59800   0.00096953523  0.00011181257  8.8788604e-06  2.184906e-05   2.7074445e-05  9.4285714    
     59900   0.00093365449  8.7840664e-05  2.3418042e-06  2.9405004e-05  2.2842223e-05  9.4285714    
     60000   0.00093465096  7.474266e-05   6.2018158e-06  3.1646553e-05  4.6773792e-05  9.4285714    
     60100   0.00092799384  9.0994549e-05  2.3061636e-05  3.7701476e-05  3.0209213e-05  9.4285714    
     60200   0.00091619075  0.0001047578   1.628e-05      2.747962e-05   2.5823969e-06  9.4285714    
     60300   0.00093223886  7.8407913e-05  2.2982982e-05  3.2634275e-05  3.3023406e-05  9.4285714    
     60400   0.00090727844  6.8742322e-05  3.1039433e-05  2.2193913e-05  3.808571e-05   9.4285714    
     60500   0.00081692545  9.250845e-05   3.5617746e-05  1.4141321e-05  1.8167721e-05  9.4285714    
     60600   0.00080528025  0.00010961384  2.938118e-05   2.799166e-05   2.4381759e-05  9.4285714    
     60700   0.00077684338  0.00014238561 -4.2405923e-07  1.5051137e-05  2.4765117e-05  9.4285714    
     60800   0.00076086148  0.00013832426  5.0352018e-06  1.4766536e-05 -3.7137733e-06  9.4285714    
     60900   0.0007985067   0.00010427139  3.563164e-05   2.9767246e-05  3.1089276e-05  9.4285714    
     61000   0.00078249394  0.00011040003  6.6905564e-06  1.6832941e-05  4.5957521e-05  9.4285714    
     61100   0.000745897    0.00012773713 -1.6711156e-05  1.4420887e-05  2.1789277e-05  9.4285714    
     61200   0.00075483235  0.00011597741  1.3801705e-05  2.6326684e-05  1.6846098e-05  9.4285714    
     61300   0.00077998681  8.7863149e-05  1.7602829e-05  2.3582937e-05  2.2072352e-05  9.4285714    
     61400   0.00077127596  9.4069099e-05  1.5941087e-06  1.7999589e-05  4.3452063e-05  9.4285714    
     61500   0.0007598977   0.00010405278  4.3153736e-06  6.5579049e-06  4.3656311e-05  9.4285714    
     61600   0.0007604063   9.4306936e-05  1.279253e-05   1.4325658e-05  2.3536045e-05  9.4285714    
     61700   0.00076713391  8.5230033e-05  8.6864215e-06  2.4892951e-05  2.8451853e-05  9.4285714    
     61800   0.00076088441  8.8041474e-05  5.8242845e-06  1.1554155e-05  4.7256847e-05  9.4285714    
     61900   0.00075854227  8.7733857e-05  5.1236995e-06  7.6059941e-06  4.0778206e-05  9.4285714    
     62000   0.00075881105  8.6701709e-05  8.1866029e-06  2.3355996e-05  3.1763622e-05  9.4285714    
     62100   0.00075546355  8.8555824e-05  4.402789e-06   2.4502976e-05  3.5505955e-05  9.4285714    
     62200   0.00075405068  8.3812754e-05  8.1453755e-06  4.9017374e-06  3.840496e-05   9.4285714    
     62300   0.00075231339  7.6960413e-05  9.2289966e-06  4.1758122e-06  4.3476108e-05  9.4285714    
     62400   0.00076212313  6.9187818e-05 -1.0679199e-05  1.8553566e-05  4.1167869e-05  9.4285714    
     62500   0.00075300581  7.0390597e-05  3.2273481e-06  1.1468255e-05  3.764298e-05   9.4285714    
     62600   0.00071470999  8.1322865e-05 -1.0364745e-05 -1.0041663e-05  3.8321462e-05  9.4285714    
     62700   0.00070909246  7.4177823e-05 -2.8769938e-05 -3.3771276e-06  3.2425757e-05  9.4285714    
     62800   0.00068338047  6.6686265e-05  2.6944316e-06  1.0700405e-05  1.7987085e-05  9.4285714    
     62900   0.00065024928  7.8865144e-05 -4.9745966e-06 -2.1430543e-05  1.0243535e-05  9.4285714    
     63000   0.00064925913  9.2898857e-05  9.3490914e-06 -2.5872541e-05  1.5366236e-05  9.4285714    
     63100   0.00065334553  8.8083225e-05  2.0806454e-05 -5.8449639e-06  2.1484556e-05  9.4285714    
     63200   0.00066559828  7.6022607e-05 -3.6156354e-06 -9.5748986e-06  1.8744143e-05  9.4285714    
     63300   0.000672922    6.1855648e-05  1.0014914e-05  7.7028985e-06  1.3340721e-05  9.4285714    
     63400   0.00067216302  5.4310451e-05  1.2693212e-05  3.3516762e-06  1.1756462e-05  9.4285714    
     63500   0.00064594666  6.8309681e-05 -8.3772356e-06 -6.1320228e-06  6.7259982e-06  9.4285714    
     63600   0.00062356731  7.1813254e-05 -6.0906779e-06  8.0409343e-06  4.0342055e-06  9.4285714    
     63700   0.00061465493  6.8114812e-05 -9.7586045e-07  2.5835008e-06 -9.8509647e-07  9.4285714    
     63800   0.00059457114  8.1082336e-05 -1.0187966e-06 -1.1281098e-05 -3.5929068e-06  9.4285714    
     63900   0.0005840961   8.3619559e-05  3.2101627e-08  1.5245076e-07  1.4198079e-06  9.4285714    
     64000   0.00058550428  6.79395e-05    2.6247884e-06 -7.0049994e-06 -1.2711429e-06  9.4285714    
     64100   0.00057122892  7.0013197e-05  7.8620537e-06 -2.1505772e-05 -3.3504794e-06  9.4285714    
     64200   0.00054376665  8.6435814e-05  5.7944499e-06 -1.4993221e-05 -4.1446208e-06  9.4285714    
     64300   0.00054983391  8.1171062e-05  1.57084e-06   -1.695982e-05   2.1736155e-06  9.4285714    
     64400   0.00054785509  7.3758557e-05  1.1820869e-05 -1.4358576e-05  1.0066977e-05  9.4285714    
     64500   0.00049844608  8.2984906e-05  2.0387948e-06 -8.901489e-06  -7.0838519e-06  9.4285714    
     64600   0.00047555651  9.149981e-05  -2.9161428e-06 -5.6490932e-06 -2.0751644e-05  9.4285714    
     64700   0.00046133993  8.2816961e-05 -2.8081254e-06 -1.1263515e-05 -4.5607334e-06  9.4285714    
     64800   0.00044560333  7.4015544e-05  1.9877254e-06 -1.2376687e-05 -5.7248373e-06  9.4285714    
     64900   0.00042061712  8.2112565e-05  2.9245507e-06 -6.7006914e-06 -1.7212301e-05  9.4285714    
     65000   0.0004151351   9.132675e-05   1.7509573e-06 -1.1460121e-05 -8.7445216e-06  9.4285714    
     65100   0.00040478904  8.5596578e-05  1.2578992e-06 -2.0256594e-05 -2.1116219e-05  9.4285714    
     65200   0.00040330464  7.381002e-05   1.1420584e-05 -1.9521628e-05 -1.3253785e-05  9.4285714    
     65300   0.0003868609   7.4643158e-05  7.6152464e-06 -1.6534845e-05 -1.4622432e-05  9.4285714    
     65400   0.00037430361  7.1679841e-05 -5.1975205e-06 -9.077699e-06  -2.8245616e-05  9.4285714    
     65500   0.00038553871  5.7413127e-05  3.6895978e-06 -1.0615893e-05 -7.3581878e-06  9.4285714    
     65600   0.00038746701  5.1832108e-05  5.7273803e-06 -9.2578203e-06 -1.0855539e-06  9.4285714    
     65700   0.00036847663  6.50508e-05   -6.5076496e-06 -1.4793827e-05 -1.2917774e-05  9.4285714    
     65800   0.00036053726  7.0459726e-05 -4.2984341e-06 -1.8992199e-05 -4.2100705e-06  9.4285714    
     65900   0.00037233963  5.7665473e-05 -6.7559997e-06 -7.8247355e-06 -2.7008847e-06  9.4285714    
     66000   0.0003766563   4.690943e-05  -1.2406534e-05 -9.1629982e-06 -1.7060304e-06  9.4285714    
     66100   0.0003662477   4.7240358e-05 -1.053431e-05  -1.2097108e-05  6.8542106e-07  9.4285714    
     66200   0.00036195889  4.65506e-05   -1.7315691e-05 -1.3496871e-05 -3.7321194e-06  9.4285714    
     66300   0.00036832297  3.4897399e-05 -1.1103263e-05 -1.6362559e-05  7.4926698e-06  9.4285714    
     66400   0.00034364066  3.3636722e-05 -1.44793e-05   -1.807549e-05   5.8198724e-06  9.4285714    
     66500   0.00033846947  3.4971419e-05 -1.5926655e-05 -1.7275053e-05 -2.6422477e-06  9.4285714    
     66600   0.00033324323  3.8812218e-05 -6.4827834e-06 -6.0884699e-06  1.0069774e-05  9.4285714    
     66700   0.00032580944  4.306371e-05  -7.1336209e-06 -1.3810569e-05  3.7398326e-06  9.4285714    
     66800   0.0003288372   3.7846971e-05 -3.3378687e-06 -1.2294525e-05  2.0579236e-06  9.4285714    
     66900   0.00032592686  3.2712779e-05 -4.6281054e-06  3.9095752e-06  5.825055e-06   9.4285714    
     67000   0.00030478112  3.7314638e-05 -7.1653012e-06 -2.2433115e-05 -1.5215649e-05  9.4285714    
     67100   0.00030173553  3.7846657e-05 -1.2527559e-06 -1.4141914e-05 -4.1970025e-06  9.4285714    
     67200   0.0003147476   2.741317e-05   6.6114971e-07  8.645546e-06   1.6817475e-05  9.4285714    
     67300   0.0003079379   3.0177281e-05 -3.3066519e-06 -6.3631386e-06  5.9326506e-06  9.4285714    
     67400   0.00029847236  3.5069092e-05  6.438738e-07   6.9501072e-06  7.3998222e-06  9.4285714    
     67500   0.000295968    3.0396551e-05 -3.3886876e-06  7.5588543e-06  1.2569895e-05  9.4285714    
     67600   0.00028452552  2.8390883e-05 -1.204503e-05  -5.9561628e-06  2.871439e-06   9.4285714    
     67700   0.00026984569  3.3260765e-05 -1.2700395e-05  8.5067508e-07  4.6010765e-06  9.4285714    
     67800   0.00027461211  3.1742443e-05 -5.8897891e-06 -7.6224506e-06  9.053271e-06   9.4285714    
     67900   0.00026858951  3.2944671e-05 -8.2553354e-06 -1.4319699e-06  4.1077358e-06  9.4285714    
     68000   0.00027185993  3.0175073e-05 -1.0937226e-05  8.5958645e-06  7.1080364e-06  9.4285714    
     68100   0.00027903426  2.4020104e-05  1.4187524e-06 -3.5655986e-06  1.4247537e-05  9.4285714    
     68200   0.00027146759  3.0778328e-05 -6.9847453e-07  1.2194752e-06  1.2457485e-05  9.4285714    
     68300   0.00027190337  2.6748773e-05 -7.7932896e-06  9.8923998e-07  9.5758739e-06  9.4285714    
     68400   0.00025847788  2.4104775e-05 -1.5046276e-06  9.4873694e-07  7.3758067e-06  9.4285714    
     68500   0.00022204259  3.8377289e-05  7.1906749e-07  6.5716054e-06 -7.0514609e-07  9.4285714    
     68600   0.00022679852  4.5808909e-05 -3.9479358e-06 -1.1463227e-06 -9.4802404e-06  9.4285714    
     68700   0.00022319776  4.9914863e-05 -6.6348541e-06  2.5927885e-07 -1.8111169e-06  9.4285714    
     68800   0.0002292523   3.0843568e-05 -3.0110593e-06  3.3302348e-06  1.8281826e-07  9.4285714    
     68900   0.0002289884   3.1287535e-05  1.0729719e-05  9.9887707e-06 -3.7420805e-06  9.4285714    
     69000   0.00022216995  3.6508987e-05 -3.28097e-06    5.1691248e-06  4.9144653e-06  9.4285714    
     69100   0.00022098532  3.4288992e-05 -5.6459454e-06 -1.0715914e-06  4.6981638e-07  9.4285714    
     69200   0.0002210808   2.8793386e-05  5.8376256e-06  1.9276303e-06  1.1077579e-06  9.4285714    
     69300   0.00022085913  2.6469003e-05 -2.5582659e-06  2.4235327e-06  2.9671604e-06  9.4285714    
     69400   0.0002106022   3.4591856e-05 -3.4528681e-06 -4.550284e-06  -4.8519033e-06  9.4285714    
     69500   0.00020623789  3.6785341e-05 -1.5402557e-06 -7.9123326e-06 -8.4212805e-07  9.4285714    
     69600   0.00021795011  2.1434823e-05  4.9489148e-07 -2.0859919e-06 -1.224884e-06   9.4285714    
     69700   0.00021486423  2.0693649e-05  2.6470649e-06 -1.0550826e-06 -5.9681069e-06  9.4285714    
     69800   0.00020152771  3.3086903e-05 -3.9206166e-06 -3.7406056e-06 -1.8387659e-06  9.4285714    
     69900   0.00020232704  3.098017e-05  -3.3841183e-06 -3.7415518e-06 -3.6391443e-06  9.4285714    
     70000   0.0002079739   2.3796714e-05 -4.542387e-07  -2.2038889e-06 -3.1660682e-06  9.4285714    
     70100   0.00020250775  2.6281753e-05 -4.4776125e-06 -3.348909e-07  -8.7106813e-07  9.4285714    
     70200   0.000201196    2.6871094e-05 -2.8962746e-06 -2.2315066e-06 -4.7056156e-06  9.4285714    
     70300   0.00020590152  2.3316518e-05 -2.4050789e-06 -2.9354311e-07 -2.408923e-06   9.4285714    
     70400   0.00020686843  2.1860252e-05 -2.6755432e-06  2.2550851e-06 -1.0650752e-06  9.4285714    
     70500   0.00019910881  2.4269646e-05 -5.746323e-06  -5.8791627e-06 -6.0824969e-06  9.4285714    
     70600   0.0001848954   2.8111778e-05 -1.2160457e-05 -1.0958954e-05 -9.5622947e-06  9.4285714    
     70700   0.00017752     2.7293561e-05 -1.2974466e-05 -1.145834e-05  -6.2087453e-06  9.4285714    
     70800   0.00016457601  3.0027396e-05 -1.2857235e-05 -1.742548e-05  -1.177005e-05   9.4285714    
     70900   0.00016728291  2.8104024e-05 -1.3119582e-05 -9.643012e-06  -8.7418406e-06  9.4285714    
     71000   0.00016628555  2.8253708e-05 -1.1372946e-05 -4.0746255e-06 -4.5137752e-06  9.4285714    
     71100   0.00016608588  2.5567776e-05 -1.502613e-05  -5.2219532e-06 -9.5871791e-06  9.4285714    
     71200   0.00017063406  2.0707395e-05 -9.5731688e-06 -7.6439242e-07  3.0999712e-07  9.4285714    
     71300   0.00017141967  2.0712226e-05 -2.7132733e-06 -2.8264029e-06  2.6173022e-06  9.4285714    
     71400   0.00016775288  2.3067155e-05 -6.4646076e-06 -3.2269247e-06 -2.653359e-07   9.4285714    
     71500   0.00016061931  2.3116437e-05 -2.8016619e-06  2.625642e-06   1.7492231e-06  9.4285714    
     71600   0.00016408758  2.0085479e-05  1.5457549e-07 -8.9596857e-07 -3.2235331e-06  9.4285714    
     71700   0.00016450012  1.9814667e-05 -2.5612029e-06 -7.3776821e-07 -8.6914115e-07  9.4285714    
     71800   0.00015425432  2.4975092e-05 -2.3032909e-06 -2.7068227e-06 -2.0970746e-06  9.4285714    
     71900   0.00015253562  2.26048e-05    6.3705432e-07 -8.1101029e-06 -9.4819375e-06  9.4285714    
     72000   0.00015317546  2.2024223e-05  1.0084282e-06 -2.9367825e-06 -5.885677e-06   9.4285714    
     72100   0.00014330908  2.7411203e-05 -1.8232069e-06 -5.4815384e-06 -8.0532303e-06  9.4285714    
     72200   0.00014141218  2.6015996e-05 -1.5383525e-06 -1.0378613e-05 -1.2956669e-05  9.4285714    
     72300   0.00014290257  2.0454646e-05 -1.0732654e-06 -6.1109009e-06 -1.0620287e-05  9.4285714    
     72400   0.00014060451  1.9631272e-05 -3.684813e-06  -7.4982843e-06 -1.0901773e-05  9.4285714    
     72500   0.00013270398  2.2892683e-05 -5.9006293e-06 -7.1868502e-06 -1.0506795e-05  9.4285714    
     72600   0.00013275308  1.9296659e-05 -1.9657429e-06 -1.1741844e-07 -7.2173679e-06  9.4285714    
     72700   0.0001292825   1.8475319e-05 -4.4969397e-06 -1.9036957e-06 -9.6435392e-06  9.4285714    
     72800   0.00011781138  2.3142754e-05 -6.9687297e-06 -3.6080077e-06 -1.1367585e-05  9.4285714    
     72900   0.0001127661   2.4101198e-05 -3.1821708e-06 -6.6785428e-07 -9.1026467e-06  9.4285714    
     73000   0.00011466717  2.123764e-05  -7.8207648e-07 -1.3796396e-07 -1.0093763e-05  9.4285714    
     73100   0.00010902426  2.3937443e-05 -1.984262e-06  -1.9169119e-06 -8.8672356e-06  9.4285714    
     73200   0.00010758127  2.3211244e-05 -7.0422774e-06 -4.189322e-06  -8.1639195e-06  9.4285714    
     73300   0.00010354754  2.2105068e-05 -7.835531e-06  -5.565164e-06  -1.1926488e-05  9.4285714    
     73400   9.1951527e-05  2.0131029e-05 -5.2051544e-06 -1.1480191e-05 -1.5124774e-05  9.4285714    
     73500   9.2461065e-05  1.8858201e-05 -7.7806887e-06 -1.3997755e-05 -1.8579237e-05  9.4285714    
     73600   9.1435114e-05  2.0427679e-05 -8.2522638e-06 -6.9266039e-06 -1.9144617e-05  9.4285714    
     73700   8.9819203e-05  1.8981396e-05 -8.7801708e-06 -5.6230686e-06 -1.4968336e-05  9.4285714    
     73800   8.8857607e-05  1.7526305e-05 -7.9397382e-06 -8.8851805e-06 -1.6889994e-05  9.4285714    
     73900   8.3008367e-05  1.9621225e-05 -5.297085e-06  -3.3708509e-06 -1.8715991e-05  9.4285714    
     74000   7.8292131e-05  2.1102904e-05 -1.0640208e-05 -9.306042e-06  -1.9036017e-05  9.4285714    
     74100   7.6743155e-05  2.1004856e-05 -1.0245953e-05 -1.2292886e-05 -2.0733359e-05  9.4285714    
     74200   7.6151041e-05  1.9312231e-05 -8.2000703e-06 -5.476893e-06  -2.14318e-05    9.4285714    
     74300   7.4740055e-05  1.7384186e-05 -1.6163717e-05 -1.0600474e-05 -2.3067414e-05  9.4285714    
     74400   6.6644378e-05  1.9714699e-05 -1.5323849e-05 -1.2102262e-05 -2.4457033e-05  9.4285714    
     74500   6.6521082e-05  1.9665146e-05 -1.3192685e-05 -1.0896412e-05 -2.3095252e-05  9.4285714    
     74600   6.6214159e-05  1.8546075e-05 -1.4657732e-05 -1.516483e-05  -2.0179994e-05  9.4285714    
     74700   6.5066506e-05  1.7571405e-05 -1.1232817e-05 -1.3580916e-05 -1.6138117e-05  9.4285714    
     74800   6.3366058e-05  1.6391885e-05 -1.2725692e-05 -1.4473155e-05 -1.5497713e-05  9.4285714    
     74900   6.3080458e-05  1.612101e-05  -1.4214395e-05 -1.533974e-05  -1.3886352e-05  9.4285714    
     75000   6.4676222e-05  1.5675101e-05 -1.1660374e-05 -1.0823664e-05 -1.1633502e-05  9.4285714    
     75100   6.5625348e-05  1.4107701e-05 -9.1656403e-06 -1.2596799e-05 -1.2175722e-05  9.4285714    
     75200   6.3672407e-05  1.2731249e-05 -7.7293674e-06 -1.4093283e-05 -1.0921321e-05  9.4285714    
     75300   6.2700133e-05  1.1403676e-05 -7.6951899e-06 -9.6285855e-06 -9.4110439e-06  9.4285714    
     75400   6.3761796e-05  1.0024925e-05 -6.2478339e-06 -8.0812464e-06 -1.1019831e-05  9.4285714    
     75500   6.1199987e-05  1.163837e-05  -8.9812265e-06 -8.5827652e-06 -1.1651255e-05  9.4285714    
     75600   5.8261777e-05  1.1001613e-05 -1.1920938e-05 -1.0554545e-05 -1.2111727e-05  9.4285714    
     75700   5.6537726e-05  9.3252964e-06 -1.2977332e-05 -9.1918717e-06 -1.0819657e-05  9.4285714    
     75800   5.1112356e-05  1.0202758e-05 -1.5932829e-05 -8.0124741e-06 -8.3226693e-06  9.4285714    
     75900   4.4320115e-05  1.2128966e-05 -1.5534329e-05 -6.0733094e-06 -6.305487e-06   9.4285714    
     76000   4.2814383e-05  1.2109723e-05 -1.451296e-05  -4.4623941e-06 -5.784341e-06   9.4285714    
     76100   4.2702168e-05  1.2650882e-05 -1.8477301e-05 -7.3647945e-06 -7.2917354e-06  9.4285714    
     76200   4.0114175e-05  1.5137263e-05 -1.537501e-05  -8.4452482e-06 -7.7213517e-06  9.4285714    
     76300   4.2223886e-05  1.1527237e-05 -1.185069e-05  -8.0336888e-06 -8.1310214e-06  9.4285714    
     76400   4.4614787e-05  8.1149898e-06 -1.116272e-05  -7.9854795e-06 -7.9840263e-06  9.4285714    
     76500   4.2014617e-05  1.0026671e-05 -8.3740021e-06 -8.170225e-06  -8.061935e-06   9.4285714    
     76600   4.0863379e-05  1.0706019e-05 -7.3168232e-06 -8.4623163e-06 -8.9233817e-06  9.4285714    
     76700   4.2288341e-05  7.9774234e-06 -7.5501183e-06 -9.2103639e-06 -8.0104908e-06  9.4285714    
     76800   4.2137916e-05  7.2144546e-06 -8.0274278e-06 -7.3125656e-06 -6.208718e-06   9.4285714    
     76900   3.9516764e-05  9.4470968e-06 -8.0876728e-06 -7.0559494e-06 -7.6917378e-06  9.4285714    
     77000   3.9740556e-05  9.2446284e-06 -9.2824878e-06 -7.8556112e-06 -8.4382698e-06  9.4285714    
     77100   4.1259747e-05  6.8469887e-06 -8.3023038e-06 -6.4546679e-06 -8.1609084e-06  9.4285714    
     77200   3.961357e-05   7.0157813e-06 -6.9221932e-06 -5.7474198e-06 -9.9995715e-06  9.4285714    
     77300   3.6921893e-05  9.1037646e-06 -8.5505248e-06 -6.2489924e-06 -1.0936055e-05  9.4285714    
     77400   3.6941555e-05  8.9031761e-06 -9.6082179e-06 -7.4395495e-06 -9.2349633e-06  9.4285714    
     77500   3.8561238e-05  6.4551736e-06 -9.9926284e-06 -9.4893047e-06 -8.2973196e-06  9.4285714    
     77600   3.7835837e-05  6.5552933e-06 -9.8235487e-06 -1.0740924e-05 -9.4329194e-06  9.4285714    
     77700   3.5365914e-05  8.5612318e-06 -9.5801465e-06 -1.2512069e-05 -1.062728e-05   9.4285714    
     77800   3.454755e-05   8.2299016e-06 -7.4716296e-06 -1.3508063e-05 -1.0408142e-05  9.4285714    
     77900   3.5011669e-05  7.2118543e-06 -4.6891312e-06 -1.0550448e-05 -1.0315471e-05  9.4285714    
     78000   3.3596632e-05  8.1746253e-06 -8.3319963e-06 -1.0635143e-05 -1.133425e-05   9.4285714    
     78100   3.3510581e-05  8.1163171e-06 -8.7023248e-06 -1.1820582e-05 -1.0772313e-05  9.4285714    
     78200   3.5010171e-05  6.7479453e-06 -6.0108673e-06 -9.1598518e-06 -1.0062258e-05  9.4285714    
     78300   3.484723e-05   6.7281877e-06 -7.9341488e-06 -9.6591689e-06 -1.0258333e-05  9.4285714    
     78400   3.2911262e-05  7.5078007e-06 -7.0903773e-06 -8.4847914e-06 -9.4037516e-06  9.4285714    
     78500   3.0801949e-05  8.2083201e-06 -5.4335421e-06 -5.5673037e-06 -8.6270223e-06  9.4285714    
     78600   2.8982495e-05  8.8442823e-06 -6.8999704e-06 -7.5201514e-06 -8.9224021e-06  9.4285714    
     78700   2.8488802e-05  7.9666679e-06 -6.3077912e-06 -9.2474784e-06 -1.0046547e-05  9.4285714    
     78800   2.9284503e-05  7.0303943e-06 -5.9732573e-06 -1.0267303e-05 -1.1377344e-05  9.4285714    
     78900   2.9646571e-05  7.7922096e-06 -6.5660764e-06 -1.1796957e-05 -1.1970242e-05  9.4285714    
     79000   2.8715509e-05  8.1430617e-06 -6.3085969e-06 -1.2174319e-05 -1.1280657e-05  9.4285714    
     79100   2.7737978e-05  7.7819461e-06 -7.0919361e-06 -1.2170627e-05 -1.1876187e-05  9.4285714    
     79200   2.763383e-05   7.612076e-06  -6.5150679e-06 -1.0679545e-05 -1.3245421e-05  9.4285714    
     79300   2.6860156e-05  7.8317437e-06 -6.9119205e-06 -9.9716633e-06 -1.3168562e-05  9.4285714    
     79400   2.6160165e-05  7.7928815e-06 -8.4434032e-06 -1.1610982e-05 -1.3559926e-05  9.4285714    
     79500   2.6585412e-05  7.4551099e-06 -9.5972097e-06 -1.1580451e-05 -1.3876415e-05  9.4285714    
     79600   2.6717631e-05  7.1136994e-06 -1.0393902e-05 -1.1753978e-05 -1.2524607e-05  9.4285714    
     79700   2.5217057e-05  7.8626459e-06 -9.4554985e-06 -1.2722352e-05 -1.2476709e-05  9.4285714    
     79800   2.4345124e-05  8.1671126e-06 -8.1156147e-06 -1.0910405e-05 -1.2837614e-05  9.4285714    
     79900   2.5311962e-05  7.1018228e-06 -8.0442272e-06 -9.9656523e-06 -1.2046723e-05  9.4285714    
     80000   2.5452044e-05  6.8331199e-06 -8.406908e-06  -1.0631166e-05 -1.1977223e-05  9.4285714    
     80100   2.4702103e-05  7.1721534e-06 -8.0321669e-06 -1.0078319e-05 -1.1470537e-05  9.4285714    
     80200   2.4667591e-05  6.7179418e-06 -8.6686758e-06 -1.0326924e-05 -1.2274818e-05  9.4285714    
     80300   2.4310703e-05  6.3934693e-06 -8.7684903e-06 -1.0731439e-05 -1.3526252e-05  9.4285714    
     80400   2.3212654e-05  7.0782558e-06 -8.0367663e-06 -1.0581268e-05 -1.3304713e-05  9.4285714    
     80500   2.1919742e-05  7.4829596e-06 -1.0425138e-05 -1.1781158e-05 -1.393528e-05   9.4285714    
     80600   2.1215458e-05  7.4437596e-06 -1.1406411e-05 -1.2871548e-05 -1.3841784e-05  9.4285714    
     80700   2.1561177e-05  7.3173476e-06 -9.9364334e-06 -1.206109e-05  -1.2156811e-05  9.4285714    
     80800   2.1049734e-05  7.9676786e-06 -9.9601925e-06 -1.1645398e-05 -1.1788832e-05  9.4285714    
     80900   2.1111075e-05  7.7263939e-06 -9.2741171e-06 -1.165382e-05  -1.1716767e-05  9.4285714    
     81000   2.1946449e-05  6.4029909e-06 -7.9785804e-06 -1.0309911e-05 -1.1059725e-05  9.4285714    
     81100   2.2263298e-05  5.5897127e-06 -8.5506755e-06 -9.7661445e-06 -1.1043837e-05  9.4285714    
     81200   2.1894353e-05  5.7818572e-06 -8.3901881e-06 -1.0281812e-05 -1.0733405e-05  9.4285714    
     81300   2.1357396e-05  6.1249912e-06 -7.9389894e-06 -9.0241238e-06 -1.0825493e-05  9.4285714    
     81400   2.1311287e-05  5.8476615e-06 -9.1909532e-06 -9.2567562e-06 -1.1638552e-05  9.4285714    
     81500   2.1532395e-05  5.653638e-06  -9.8267309e-06 -9.7884603e-06 -1.146839e-05   9.4285714    
     81600   2.1269542e-05  5.6928509e-06 -1.079895e-05  -9.5247221e-06 -1.1794033e-05  9.4285714    
     81700   1.9958137e-05  6.1385724e-06 -1.1825989e-05 -1.0226531e-05 -1.2761853e-05  9.4285714    
     81800   1.8954785e-05  6.6543066e-06 -1.155525e-05  -9.8059866e-06 -1.2319613e-05  9.4285714    
     81900   1.9108738e-05  6.7739534e-06 -1.1438315e-05 -8.8915925e-06 -1.1751315e-05  9.4285714    
     82000   2.0049456e-05  6.079321e-06  -1.1151e-05    -9.2439641e-06 -1.1732315e-05  9.4285714    
     82100   2.0190925e-05  5.4972559e-06 -1.0848154e-05 -8.0539313e-06 -1.1747982e-05  9.4285714    
     82200   1.9978942e-05  5.4335401e-06 -1.1394343e-05 -7.9292132e-06 -1.1660899e-05  9.4285714    
     82300   1.9206336e-05  5.5399968e-06 -1.2248321e-05 -1.0554925e-05 -1.1603031e-05  9.4285714    
     82400   1.9431534e-05  5.793996e-06  -1.1757702e-05 -1.1496068e-05 -1.1456987e-05  9.4285714    
     82500   1.933964e-05   6.110726e-06  -9.8494887e-06 -1.0080367e-05 -1.0879677e-05  9.4285714    
     82600   1.937382e-05   6.0217257e-06 -1.0503321e-05 -1.1521988e-05 -1.1311162e-05  9.4285714    
     82700   1.983663e-05   5.5747708e-06 -1.1121995e-05 -1.15961e-05   -1.1604291e-05  9.4285714    
     82800   1.9915563e-05  5.6042824e-06 -9.6645482e-06 -9.9813279e-06 -1.1094973e-05  9.4285714    
     82900   1.9683042e-05  5.9393113e-06 -9.5759674e-06 -1.1832513e-05 -1.1342836e-05  9.4285714    
     83000   1.9727898e-05  5.9788777e-06 -9.3267318e-06 -1.1956913e-05 -1.1108341e-05  9.4285714    
     83100   1.9863238e-05  5.6139005e-06 -8.3768772e-06 -1.1412674e-05 -1.0723756e-05  9.4285714    
     83200   2.0046383e-05  5.1677602e-06 -8.5497884e-06 -1.1831809e-05 -1.0673934e-05  9.4285714    
     83300   2.0080133e-05  5.2674737e-06 -7.8828958e-06 -1.0447714e-05 -1.0488234e-05  9.4285714    
     83400   2.0208616e-05  5.3000243e-06 -7.3332153e-06 -1.0220886e-05 -1.0909671e-05  9.4285714    
     83500   2.032578e-05   5.1254893e-06 -7.2746718e-06 -1.0459401e-05 -1.0988501e-05  9.4285714    
     83600   1.8922553e-05  5.2401595e-06 -8.1627321e-06 -1.1558746e-05 -1.1681835e-05  9.4285714    
     83700   1.6621482e-05  5.7380153e-06 -9.9281614e-06 -1.530743e-05  -1.3195943e-05  9.4285714    
     83800   1.5406538e-05  6.2390705e-06 -9.886504e-06  -1.3272041e-05 -1.2729437e-05  9.4285714    
     83900   1.6043648e-05  6.2332738e-06 -9.0232e-06    -1.043359e-05  -1.224721e-05   9.4285714    
     84000   1.7264579e-05  5.6573652e-06 -9.6509932e-06 -1.1025099e-05 -1.2507597e-05  9.4285714    
     84100   1.7369041e-05  5.3855567e-06 -1.0696607e-05 -1.1013041e-05 -1.2553161e-05  9.4285714    
     84200   1.650861e-05   5.9530159e-06 -1.1170712e-05 -1.1820387e-05 -1.2943713e-05  9.4285714    
     84300   1.564097e-05   6.6979262e-06 -1.1406491e-05 -1.2259752e-05 -1.3400767e-05  9.4285714    
     84400   1.5100226e-05  6.9761856e-06 -1.1348899e-05 -1.1177579e-05 -1.3134099e-05  9.4285714    
     84500   1.4989241e-05  6.4643149e-06 -1.1426141e-05 -1.1403765e-05 -1.3165399e-05  9.4285714    
     84600   1.4390587e-05  6.3435805e-06 -1.1358763e-05 -1.1082497e-05 -1.3578901e-05  9.4285714    
     84700   1.2989687e-05  7.0471304e-06 -1.0626632e-05 -1.0201989e-05 -1.3526045e-05  9.4285714    
     84800   1.2531278e-05  7.0386537e-06 -9.5440982e-06 -1.0767999e-05 -1.3355557e-05  9.4285714    
     84900   1.2759182e-05  6.807368e-06  -9.1643459e-06 -1.0799579e-05 -1.3393154e-05  9.4285714    
     85000   1.277464e-05   7.1307059e-06 -9.0711596e-06 -1.1315322e-05 -1.3514636e-05  9.4285714    
     85100   1.3480638e-05  6.799228e-06  -8.1318477e-06 -1.2050741e-05 -1.3753618e-05  9.4285714    
     85200   1.4184381e-05  6.2489198e-06 -7.5060546e-06 -1.1838445e-05 -1.3386323e-05  9.4285714    
     85300   1.4049007e-05  6.3413831e-06 -7.6259945e-06 -1.2727349e-05 -1.3007907e-05  9.4285714    
     85400   1.4129693e-05  6.2081192e-06 -8.5228167e-06 -1.3119726e-05 -1.3120843e-05  9.4285714    
     85500   1.4130842e-05  5.9536525e-06 -9.6942856e-06 -1.2718286e-05 -1.2705333e-05  9.4285714    
     85600   1.3665626e-05  6.0219945e-06 -1.0179703e-05 -1.1621347e-05 -1.2721694e-05  9.4285714    
     85700   1.3103478e-05  6.0958051e-06 -9.9967006e-06 -1.0729482e-05 -1.3252935e-05  9.4285714    
     85800   1.2503002e-05  6.0986732e-06 -9.5863593e-06 -1.2169859e-05 -1.3055369e-05  9.4285714    
     85900   1.1848705e-05  6.243491e-06  -9.6134767e-06 -1.2420428e-05 -1.2904018e-05  9.4285714    
     86000   1.180981e-05   6.2295699e-06 -9.4080623e-06 -1.0883062e-05 -1.2898296e-05  9.4285714    
     86100   1.2248028e-05  6.0572367e-06 -9.1522312e-06 -1.088872e-05  -1.2155482e-05  9.4285714    
     86200   1.2574555e-05  5.7181567e-06 -8.5841997e-06 -1.1335018e-05 -1.2164294e-05  9.4285714    
     86300   1.2900654e-05  5.2006906e-06 -8.5404595e-06 -1.0994697e-05 -1.2514991e-05  9.4285714    
     86400   1.2542406e-05  5.2162451e-06 -9.2723643e-06 -1.0646385e-05 -1.242097e-05   9.4285714    
     86500   1.1664943e-05  5.5186704e-06 -1.0014564e-05 -1.032352e-05  -1.2695474e-05  9.4285714    
     86600   1.1303729e-05  5.3933115e-06 -1.0000679e-05 -9.57119e-06   -1.305699e-05   9.4285714    
     86700   1.1044973e-05  5.241403e-06  -1.0157413e-05 -9.6252288e-06 -1.3502889e-05  9.4285714    
     86800   9.8907799e-06  5.3750768e-06 -9.80164e-06   -9.971064e-06  -1.3585765e-05  9.4285714    
     86900   8.0055959e-06  5.9453907e-06 -1.0000059e-05 -1.0595915e-05 -1.3234972e-05  9.4285714    
     87000   7.3178084e-06  6.2664938e-06 -9.8491603e-06 -1.0830623e-05 -1.3302535e-05  9.4285714    
     87100   8.1191909e-06  5.9961509e-06 -9.0870893e-06 -1.096758e-05  -1.3270863e-05  9.4285714    
     87200   9.0345867e-06  5.5436501e-06 -9.5923246e-06 -1.1607981e-05 -1.2752954e-05  9.4285714    
     87300   8.8077958e-06  5.3999773e-06 -9.0061025e-06 -1.1371547e-05 -1.2796925e-05  9.4285714    
     87400   8.035558e-06   5.7079285e-06 -7.5303954e-06 -1.1464993e-05 -1.2899252e-05  9.4285714    
     87500   8.5179016e-06  5.4610728e-06 -8.6780386e-06 -1.0948723e-05 -1.2344477e-05  9.4285714    
     87600   8.710314e-06   5.2384349e-06 -9.0014081e-06 -1.0037532e-05 -1.1751719e-05  9.4285714    
     87700   8.4597408e-06  5.1281529e-06 -8.8576249e-06 -1.0623735e-05 -1.1258301e-05  9.4285714    
     87800   8.0695891e-06  5.0770496e-06 -1.0040338e-05 -1.0629864e-05 -1.0785988e-05  9.4285714    
     87900   7.9136124e-06  4.8581632e-06 -9.6829666e-06 -1.1532003e-05 -1.0761684e-05  9.4285714    
     88000   7.8557578e-06  4.7823472e-06 -9.5098383e-06 -1.2446435e-05 -1.1196456e-05  9.4285714    
     88100   7.5515405e-06  4.8611921e-06 -9.4396965e-06 -1.2079499e-05 -1.1916732e-05  9.4285714    
     88200   7.4994893e-06  4.543536e-06  -8.9318918e-06 -1.2379956e-05 -1.2417685e-05  9.4285714    
     88300   7.4014871e-06  4.3757749e-06 -9.4381258e-06 -1.2027546e-05 -1.2776493e-05  9.4285714    
     88400   7.0263529e-06  4.4826109e-06 -1.0036276e-05 -1.1899996e-05 -1.3079778e-05  9.4285714    
     88500   6.9988583e-06  4.205663e-06  -1.0445143e-05 -1.2268236e-05 -1.3340578e-05  9.4285714    
     88600   6.9017968e-06  4.0885246e-06 -1.0648793e-05 -1.1108453e-05 -1.31689e-05    9.4285714    
     88700   6.518837e-06   4.3849605e-06 -1.0269058e-05 -1.0611298e-05 -1.2621465e-05  9.4285714    
     88800   6.2602688e-06  4.5087611e-06 -1.0534328e-05 -1.1170794e-05 -1.1950452e-05  9.4285714    
     88900   6.204223e-06   4.364085e-06  -1.042905e-05  -1.1039146e-05 -1.1307188e-05  9.4285714    
     89000   6.0840303e-06  4.2985772e-06 -1.0175724e-05 -1.1351175e-05 -1.1038259e-05  9.4285714    
     89100   6.1898367e-06  4.1838372e-06 -1.0343863e-05 -1.148232e-05  -1.0675157e-05  9.4285714    
     89200   6.3893074e-06  3.9825322e-06 -1.0642916e-05 -1.1379093e-05 -1.0605643e-05  9.4285714    
     89300   6.3530006e-06  3.8538863e-06 -1.1378294e-05 -1.1903988e-05 -1.1349159e-05  9.4285714    
     89400   6.1768904e-06  3.8291055e-06 -1.1005655e-05 -1.2001928e-05 -1.1475677e-05  9.4285714    
     89500   5.7344926e-06  3.9420736e-06 -1.0642177e-05 -1.2451375e-05 -1.1485478e-05  9.4285714    
     89600   5.4596073e-06  3.8637799e-06 -1.0908217e-05 -1.3208089e-05 -1.1549878e-05  9.4285714    
     89700   5.4218947e-06  3.5934269e-06 -1.0799234e-05 -1.3159046e-05 -1.1109146e-05  9.4285714    
     89800   5.3334978e-06  3.6282438e-06 -1.1348715e-05 -1.322511e-05  -1.1316676e-05  9.4285714    
     89900   5.0601284e-06  3.96628e-06   -1.1545054e-05 -1.2636239e-05 -1.1377284e-05  9.4285714    
     90000   4.8414034e-06  4.0812799e-06 -1.1367618e-05 -1.1642761e-05 -1.1314031e-05  9.4285714    
     90100   4.8290618e-06  3.8939495e-06 -1.127341e-05  -1.1204861e-05 -1.1672686e-05  9.4285714    
     90200   4.7952432e-06  3.8746454e-06 -1.0620836e-05 -1.0992784e-05 -1.1825897e-05  9.4285714    
     90300   4.8886522e-06  3.9161302e-06 -1.0237633e-05 -1.075398e-05  -1.2009106e-05  9.4285714    
     90400   5.2651819e-06  3.6821498e-06 -9.9663823e-06 -1.0589116e-05 -1.2074448e-05  9.4285714    
     90500   5.5155378e-06  3.5209795e-06 -9.7532534e-06 -1.0868436e-05 -1.1948011e-05  9.4285714    
     90600   5.3300342e-06  3.6657359e-06 -1.0303473e-05 -1.1766156e-05 -1.2192817e-05  9.4285714    
     90700   5.0042349e-06  3.7716469e-06 -1.0720352e-05 -1.2504165e-05 -1.2319248e-05  9.4285714    
     90800   4.7746906e-06  3.7127207e-06 -1.1164284e-05 -1.2882774e-05 -1.2516815e-05  9.4285714    
     90900   4.68614e-06    3.7839172e-06 -1.1376122e-05 -1.2947992e-05 -1.2538127e-05  9.4285714    
     91000   4.7058772e-06  4.0431627e-06 -1.0920929e-05 -1.2612956e-05 -1.2228543e-05  9.4285714    
     91100   4.9214491e-06  4.1334447e-06 -1.0901826e-05 -1.2663044e-05 -1.2085472e-05  9.4285714    
     91200   4.9660818e-06  3.9578323e-06 -1.0996257e-05 -1.3025237e-05 -1.2231653e-05  9.4285714    
     91300   4.6725173e-06  3.9493616e-06 -1.0781943e-05 -1.3070167e-05 -1.2456394e-05  9.4285714    
     91400   4.6196572e-06  4.0384185e-06 -1.0739959e-05 -1.2746077e-05 -1.2829825e-05  9.4285714    
     91500   4.287413e-06   4.1804771e-06 -1.0329885e-05 -1.2052523e-05 -1.3129205e-05  9.4285714    
     91600   3.9862568e-06  4.4859889e-06 -9.8664632e-06 -1.1992723e-05 -1.3451755e-05  9.4285714    
     91700   3.7724125e-06  4.7622898e-06 -9.612477e-06  -1.2363248e-05 -1.3647414e-05  9.4285714    
     91800   3.5962651e-06  4.7315434e-06 -9.3646731e-06 -1.2124451e-05 -1.3585136e-05  9.4285714    
     91900   3.3690273e-06  4.7105638e-06 -9.317645e-06  -1.2274449e-05 -1.381812e-05   9.4285714    
     92000   3.2985498e-06  4.7341853e-06 -9.261867e-06  -1.2445575e-05 -1.4031153e-05  9.4285714    
     92100   3.4043356e-06  4.7227988e-06 -9.5556425e-06 -1.2267237e-05 -1.4139842e-05  9.4285714    
     92200   3.3817247e-06  4.8040312e-06 -1.0073004e-05 -1.2358312e-05 -1.4230976e-05  9.4285714    
     92300   3.2880181e-06  4.7934734e-06 -1.0738673e-05 -1.2312811e-05 -1.406036e-05   9.4285714    
     92400   3.1565728e-06  4.8047491e-06 -1.1514055e-05 -1.2460378e-05 -1.3984417e-05  9.4285714    
     92500   3.0901181e-06  4.8786631e-06 -1.1832101e-05 -1.275636e-05  -1.4031381e-05  9.4285714    
     92600   3.2843307e-06  4.7115308e-06 -1.1359792e-05 -1.2394051e-05 -1.403664e-05   9.4285714    
     92700   3.3674686e-06  4.5604907e-06 -1.061726e-05  -1.2489398e-05 -1.4251946e-05  9.4285714    
     92800   3.1156114e-06  4.6340345e-06 -1.043336e-05  -1.3023432e-05 -1.4369404e-05  9.4285714    
     92900   3.0617695e-06  4.5758231e-06 -1.0256066e-05 -1.2856273e-05 -1.4090099e-05  9.4285714    
     93000   3.1327314e-06  4.4949127e-06 -9.5411022e-06 -1.2302e-05    -1.3727746e-05  9.4285714    
     93100   3.0266993e-06  4.6112498e-06 -8.9240533e-06 -1.2163058e-05 -1.3438838e-05  9.4285714    
     93200   2.9809517e-06  4.6104132e-06 -8.8685158e-06 -1.1975608e-05 -1.31006e-05    9.4285714    
     93300   2.971128e-06   4.4773082e-06 -8.9909862e-06 -1.2188938e-05 -1.2842339e-05  9.4285714    
     93400   2.8930788e-06  4.4121803e-06 -9.0525373e-06 -1.2886492e-05 -1.2683034e-05  9.4285714    
     93500   2.8748666e-06  4.3498911e-06 -9.1543803e-06 -1.3009929e-05 -1.250505e-05   9.4285714    
     93600   2.8781298e-06  4.2932631e-06 -9.1565583e-06 -1.2750499e-05 -1.2404924e-05  9.4285714    
     93700   2.785771e-06   4.2922907e-06 -9.2156198e-06 -1.2376487e-05 -1.2369632e-05  9.4285714    
     93800   2.6670129e-06  4.2984615e-06 -9.426397e-06  -1.2012452e-05 -1.230168e-05   9.4285714    
     93900   2.6293489e-06  4.2590357e-06 -9.7162785e-06 -1.2108235e-05 -1.2300278e-05  9.4285714    
     94000   2.6477456e-06  4.2023028e-06 -9.8005056e-06 -1.231263e-05  -1.2362364e-05  9.4285714    
     94100   2.5577265e-06  4.1623912e-06 -9.6210018e-06 -1.26182e-05   -1.2542171e-05  9.4285714    
     94200   2.2227708e-06  4.2214592e-06 -9.8430358e-06 -1.3026905e-05 -1.2762795e-05  9.4285714    
     94300   1.866061e-06   4.3442806e-06 -9.9138267e-06 -1.3027242e-05 -1.2813388e-05  9.4285714    
     94400   1.6776973e-06  4.4233161e-06 -9.7935346e-06 -1.3160206e-05 -1.281634e-05   9.4285714    
     94500   1.6644958e-06  4.3905591e-06 -9.5274788e-06 -1.3095264e-05 -1.2760602e-05  9.4285714    
     94600   1.627778e-06   4.3085654e-06 -9.1547373e-06 -1.2678983e-05 -1.2635001e-05  9.4285714    
     94700   1.5252112e-06  4.2750783e-06 -9.1788349e-06 -1.2643202e-05 -1.2596991e-05  9.4285714    
     94800   1.3926592e-06  4.2997505e-06 -9.0746156e-06 -1.248431e-05  -1.2485115e-05  9.4285714    
     94900   1.3088784e-06  4.2699498e-06 -8.8329635e-06 -1.2205557e-05 -1.245385e-05   9.4285714    
     95000   1.2739076e-06  4.2100469e-06 -8.9609932e-06 -1.2281424e-05 -1.2610701e-05  9.4285714    
     95100   1.2534056e-06  4.1852953e-06 -8.8995804e-06 -1.227938e-05  -1.2593899e-05  9.4285714    
     95200   1.2493625e-06  4.14085e-06   -8.7526253e-06 -1.2121952e-05 -1.2454564e-05  9.4285714    
     95300   1.2094249e-06  4.1031792e-06 -8.8674169e-06 -1.2047745e-05 -1.2414406e-05  9.4285714    
     95400   1.1659223e-06  4.1106112e-06 -8.5926032e-06 -1.1774616e-05 -1.2307032e-05  9.4285714    
     95500   1.1830264e-06  4.0953438e-06 -8.1635124e-06 -1.1366455e-05 -1.2308366e-05  9.4285714    
     95600   1.1434342e-06  4.1035076e-06 -8.1271035e-06 -1.1262046e-05 -1.238935e-05   9.4285714    
     95700   1.0265349e-06  4.1163857e-06 -8.2009127e-06 -1.1267287e-05 -1.2414983e-05  9.4285714    
     95800   9.7414825e-07  4.0328215e-06 -8.3051681e-06 -1.1419287e-05 -1.255592e-05   9.4285714    
     95900   9.7937121e-07  3.95235e-06   -8.3058633e-06 -1.1893464e-05 -1.2673396e-05  9.4285714    
     96000   1.0118255e-06  3.9435767e-06 -8.144292e-06  -1.2167816e-05 -1.259515e-05   9.4285714    
     96100   1.0884647e-06  3.926631e-06  -7.9567758e-06 -1.2266601e-05 -1.2431912e-05  9.4285714    
     96200   1.1593188e-06  3.9018242e-06 -7.8675643e-06 -1.2325474e-05 -1.2222203e-05  9.4285714    
     96300   1.1890006e-06  3.8679722e-06 -8.0557367e-06 -1.2286283e-05 -1.1987777e-05  9.4285714    
     96400   1.1857009e-06  3.8047409e-06 -8.0833781e-06 -1.25595e-05   -1.1798889e-05  9.4285714    
     96500   1.131989e-06   3.772801e-06  -7.8849095e-06 -1.2520622e-05 -1.1647803e-05  9.4285714    
     96600   1.0834406e-06  3.7794201e-06 -7.9404329e-06 -1.2132592e-05 -1.1582905e-05  9.4285714    
     96700   1.0812784e-06  3.7602112e-06 -8.0037872e-06 -1.185556e-05  -1.1579998e-05  9.4285714    
     96800   1.109784e-06   3.7054454e-06 -8.1109487e-06 -1.1483583e-05 -1.1550982e-05  9.4285714    
     96900   1.1324157e-06  3.6671954e-06 -8.2526961e-06 -1.1223332e-05 -1.1545801e-05  9.4285714    
     97000   1.1077852e-06  3.6883772e-06 -8.1948386e-06 -1.106656e-05  -1.1439212e-05  9.4285714    
     97100   1.0613432e-06  3.7247742e-06 -8.2556114e-06 -1.1005041e-05 -1.1316869e-05  9.4285714    
     97200   1.0199123e-06  3.7208698e-06 -8.3702855e-06 -1.1266198e-05 -1.1291841e-05  9.4285714    
     97300   9.5778665e-07  3.6966769e-06 -8.3571884e-06 -1.1509785e-05 -1.1278047e-05  9.4285714    
     97400   9.3073097e-07  3.6961336e-06 -8.3674951e-06 -1.1668743e-05 -1.133418e-05   9.4285714    
     97500   9.6041298e-07  3.7366685e-06 -8.317845e-06  -1.1818436e-05 -1.1453413e-05  9.4285714    
     97600   9.7616707e-07  3.7801342e-06 -8.2064805e-06 -1.1714006e-05 -1.1606991e-05  9.4285714    
     97700   9.4770178e-07  3.7680436e-06 -8.2024507e-06 -1.1620442e-05 -1.192038e-05   9.4285714    
     97800   8.7769748e-07  3.7294411e-06 -8.173653e-06  -1.1692201e-05 -1.2277284e-05  9.4285714    
     97900   7.6654318e-07  3.7233888e-06 -8.2454304e-06 -1.1572584e-05 -1.2553592e-05  9.4285714    
     98000   6.7473263e-07  3.7401114e-06 -8.3613642e-06 -1.1355661e-05 -1.2754419e-05  9.4285714    
     98100   6.2482398e-07  3.7672796e-06 -8.2989442e-06 -1.1243957e-05 -1.2871184e-05  9.4285714    
     98200   5.7369316e-07  3.8328057e-06 -8.278715e-06  -1.1191341e-05 -1.2907266e-05  9.4285714    
     98300   5.4035185e-07  3.9092806e-06 -8.3517134e-06 -1.1203863e-05 -1.2885549e-05  9.4285714    
     98400   5.3683718e-07  3.9412463e-06 -8.3758563e-06 -1.1207139e-05 -1.2815947e-05  9.4285714    
     98500   5.0857239e-07  3.9523598e-06 -8.5321262e-06 -1.1315241e-05 -1.2745435e-05  9.4285714    
     98600   4.5701582e-07  3.973175e-06  -8.6867828e-06 -1.1499868e-05 -1.2713439e-05  9.4285714    
     98700   4.3877359e-07  3.9804651e-06 -8.5876593e-06 -1.1581382e-05 -1.2718376e-05  9.4285714    
     98800   4.3930518e-07  3.9886286e-06 -8.4504532e-06 -1.167485e-05  -1.281334e-05   9.4285714    
     98900   4.1572477e-07  4.0258393e-06 -8.4597049e-06 -1.178924e-05  -1.3010536e-05  9.4285714    
     99000   3.7342448e-07  4.0580876e-06 -8.5012035e-06 -1.1878959e-05 -1.3242061e-05  9.4285714    
     99100   3.3008374e-07  4.0622637e-06 -8.6265214e-06 -1.1997264e-05 -1.347896e-05   9.4285714    
     99200   3.0077389e-07  4.0613125e-06 -8.6859297e-06 -1.2110927e-05 -1.3594693e-05  9.4285714    
     99300   2.996823e-07   4.0657081e-06 -8.638275e-06  -1.2182028e-05 -1.3548426e-05  9.4285714    
     99400   3.0769389e-07  4.0782279e-06 -8.6153751e-06 -1.2106258e-05 -1.3425745e-05  9.4285714    
     99500   3.0084462e-07  4.0868025e-06 -8.6049544e-06 -1.1968592e-05 -1.3278912e-05  9.4285714    
     99600   2.8775699e-07  4.055629e-06  -8.6769633e-06 -1.1867392e-05 -1.3186959e-05  9.4285714    
     99700   2.721926e-07   4.0004364e-06 -8.5728911e-06 -1.1767241e-05 -1.3137735e-05  9.4285714    
     99800   2.4851645e-07  3.9608655e-06 -8.3411942e-06 -1.1639649e-05 -1.3075452e-05  9.4285714    
     99900   2.3720992e-07  3.9326623e-06 -8.2371692e-06 -1.1461561e-05 -1.2993986e-05  9.4285714    
    100000   2.2956128e-07  3.9110654e-06 -8.1123837e-06 -1.1299447e-05 -1.2900317e-05  9.4285714    
Loop time of 389.124 on 1 procs for 100000 steps with 2520 atoms

Performance: 1110184.866 tau/day, 256.987 timesteps/s, 647.608 katom-step/s
99.8% CPU use with 1 MPI tasks x no OpenMP threads

MPI task timing breakdown:
Section |  min time  |  avg time  |  max time  |%varavg| %total
---------------------------------------------------------------
Pair    | 3.2101     | 3.2101     | 3.2101     |   0.0 |  0.82
Bond    | 357.21     | 357.21     | 357.21     |   0.0 | 91.80
Neigh   | 4.2317     | 4.2317     | 4.2317     |   0.0 |  1.09
Comm    | 0.11169    | 0.11169    | 0.11169    |   0.0 |  0.03
Output  | 0.084416   | 0.084416   | 0.084416   |   0.0 |  0.02
Modify  | 23.738     | 23.738     | 23.738     |   0.0 |  6.10
Other   |            | 0.5377     |            |       |  0.14

Nlocal:           2520 ave        2520 max        2520 min
Histogram: 1 0 0 0 0 0 0 0 0 0
Nghost:              0 ave           0 max           0 min
Histogram: 1 0 0 0 0 0 0 0 0 0
Neighs:           9828 ave        9828 max        9828 min
Histogram: 1 0 0 0 0 0 0 0 0 0

Total # of neighbors = 9828
Ave neighs/atom = 3.9
Ave special neighs/atom = 36.31746
Neighbor list builds = 5301
Dangerous builds = 0
Total wall time: 0:06:29
